##TITLE=HMDB0000162, Experimental spectrum with assignments
##JCAMP-DX=4.24
##ORIGIN=UNKNOWN
##OWNER=UNKNOWN
##DATA TYPE=LINK
##DATE=22/03/03
##TIME=15:04:29
##LONG DATE=2022/03/03 15:04:29 
##TITLE=L-proline
##JCAMP-CS=3.7
##ORIGIN=UNKNOWN
##OWNER=UNKNOWN
##DATE=22/03/03
##TIME=15:04:29
##BLOCK_ID=1
##CROSS REFERENCE=NMR PEAK ASSIGNMENTS:BLOCK_ID=4
##LONG DATE=2022/03/03 15:04:29 
##MOLFORM=C5 H9 N O2
##ATOMLIST=
1 O 0
2 C 0
3 O 0
4 C 0
5 C 0
6 C 0
7 C 0
8 N 0
9 H 0
10 H 0
11 H 0
12 H 0
13 H 0
14 H 0
15 H 0
16 H 0
17 H 0
##BONDLIST=
1 2 D
2 3 S
2 4 S
4 5 S
5 6 S
6 7 S
7 8 S
8 4 S
3 9 S
4 10 S
5 11 S
5 12 S
6 13 S
6 14 S
7 15 S
7 16 S
8 17 S
##STEREOCENTER=
4 M 0
##$MOLFILE=
     RDKit          3D

 17 17  0  0  0  0  0  0  0  0999 V2000
    2.6545   -0.8494    0.9341 O   0  0  0  0  0  0  0  0  0  0  0  0
    1.9702   -0.1565    0.1548 C   0  0  0  0  0  0  0  0  0  0  0  0
    2.5775    0.3027   -0.9784 O   0  0  0  0  0  0  0  0  0  0  0  0
    0.5976    0.1007    0.5453 C   0  0  2  0  0  0  0  0  0  0  0  0
   -0.3179   -1.1157    0.4247 C   0  0  0  0  0  0  0  0  0  0  0  0
   -1.6739   -0.4777    0.3916 C   0  0  0  0  0  0  0  0  0  0  0  0
   -1.4392    1.0043    0.3267 C   0  0  0  0  0  0  0  0  0  0  0  0
   -0.0776    1.1154   -0.2081 N   0  0  0  0  0  0  0  0  0  0  0  0
    3.1563   -0.3225   -1.5327 H   0  0  0  0  0  0  0  0  0  0  0  0
    0.5228    0.4530    1.6165 H   0  0  0  0  0  0  0  0  0  0  0  0
   -0.1759   -1.7926    1.3124 H   0  0  0  0  0  0  0  0  0  0  0  0
   -0.0553   -1.6790   -0.5296 H   0  0  0  0  0  0  0  0  0  0  0  0
   -2.1794   -0.8511   -0.5198 H   0  0  0  0  0  0  0  0  0  0  0  0
   -2.2555   -0.7669    1.3190 H   0  0  0  0  0  0  0  0  0  0  0  0
   -2.1951    1.5340   -0.2717 H   0  0  0  0  0  0  0  0  0  0  0  0
   -1.3482    1.4445    1.3498 H   0  0  0  0  0  0  0  0  0  0  0  0
    0.2393    2.0568   -0.1750 H   0  0  0  0  0  0  0  0  0  0  0  0
  1  2  2  0
  2  3  1  0
  2  4  1  0
  4  5  1  0
  5  6  1  0
  6  7  1  0
  7  8  1  0
  8  4  1  0
  3  9  1  0
  4 10  1  1
  5 11  1  0
  5 12  1  0
  6 13  1  0
  6 14  1  0
  7 15  1  0
  7 16  1  0
  8 17  1  0
M  END

##END=
##TITLE=Spectrum
##JCAMP-DX=5.01
##ORIGIN=UNKNOWN
##OWNER=UNKNOWN
##DATA TYPE=NMR SPECTRUM
##BLOCK_ID=2
##CROSS REFERENCE=NMR PEAK TABLE:BLOCK_ID=3
##DATE=22/03/03
##TIME=15:04:29
##TEMPERATURE=25
##LONG DATE=2022/03/03 15:04:29 
##.OBSERVE FREQUENCY=600
##.OBSERVE NUCLEUS=1H
##.SOLVENT NAME=H2O
##.SHIFT REFERENCE=INTERNAL,DSS,58850.00,0
##XUNITS=PPM
##FIRSTX=10.81878
##LASTX=-1.228947
##MINX=-1.228947
##MAXX=10.81878
##XFACTOR=0.00018999999999991246
##NPOINTS=65536
##YUNITS=ARBITRARY UNITS
##FIRSTY=205570.9
##LASTY=929716.4
##MINY=-198677100.0
##MAXY=9461322000.0
##YFACTOR=288745.4451124607
##XYDATA=(X++(Y..Y)), XYDATA $$ DIF
56941A%%J%Jk%lm%KLJ%JJ%%MJk%%jk%kl%KK%j%JJK%kkMKjlm%%JMJ%l%klNLKJllJKKLjk%j%MJnj
56869DK%%jkJJlml%NJjKJjJJJjmj%JL%jlmlJJMLJKk%jkKMLkkj%Kjkjk%J%kjKLL%njLNKkkjjjkJ
56798A%kLMJjkpm%jJJL%lJL%kKKjl%LMjmmkJ%NM%%jjj%JkkLNJjlJ%ljJLJmjMLj%JKjmjk%KjkjJ
56726bKkkkKNJK%llj%j%kkjJkJNJJjoJMLKjjMKJJj%%%%jj%K%%knl%jJMlmlKNLK%%kjK%KJj%Jjk
56655AjlKMkjj%%ljMMJlljj%%KjjJkJMJ%%K%k%jmkJJJjjLNMKlmjkkll%LLKlkKKj%kJKlmkLJJLL
56583@JkmJ%k%KKJLKkljkljjLLkj%%jKJ%JKMKljK%jlpkOLL%jlkKJkJ%%JJLKkkJjkk%KJKJkJjjL
56511C%mokj%JM%%JKMJmlKJmlJNKMKmljJjkjm%MMLJkkjjJjkJJkkljKNPK%%k%JKJjjkJKkjJl%Jl
56440a%LKkjM%kj%jk%%l%%jKNLJ%jJ%ljK%KJljJLKjj%ll%%jjjKKJKJkm%JJjlJLLjljkJ%j%%MJl
56368@%%%l%N%j%k%J%kmJKKkjK%jL%%kkJLJk%%j%j%mkLjjk%NOOKnnmjMKkLJkmjKKJK%%JlllJMJ
56297@ll%JJJj%ML%%%k%k%Kk%JllJJ%N%mJJJKko%NKkJJkmj%%JJMNJkloJLjnjMJ%Jk%JJJ%JKjmj
56225dKjlJLJ%kJ%kk%JLklJllJjKK%M%l%LOMjlljnlMOO%%kjLJjkjJklj%jkkKLJj%KJ%kJM%kj%J
56153BJn%Mjjll%%kJKjkLLk%MJk%jnl%%KKMJ%jkJ%kJMMKJJkjlmLjmKjJLK%j%JJjJKkjKjlL%%KJ
56082G%ljkkMOkpmjMLj%Jj%Jl%kmJMKJNJkJjjknk%LLJLjllJOJjj%KkJKkjkjkkJLKJLkjKJJJklK
56010Fjkjm%KMN%mkNJk%KKklnpjjj%M%%LK%%KKlkJJ%%jl%J%LLNLll%Jk%jJKkm%LJ%JljJ%kkKJk
55939@KMKJkkKKJnmljMMLJ%nl%Kj%MKKkmk%LKkkkjnmkLMLKKKj%KK%j%JLKkno%jjkmkJKLKJKMMj
55867HpmKKjl%Ljn%PNjmJ%%jj%lkl%jjMLLLjjmKMKNJknqnl%OLkJ%J%jln%%JKLMLMj%jkKk%jkLj
55795@p%MLJ%JJ%k%%KNJnqkMJJL%jJ%KJjmnjJ%jo%MKNJkknkJMKJLK%%nkK%%%%Ljmm%Kk%L%lqoM
55724a8QKmkKLjKJJLL%mjKKjkJKjjjljMKjkk%jlLLkJJLLj%KL%jkkmo%jJNLKln%LKKK%lkKL%jJJ
55653BMLk%kkmmLJJJjJKkllkkKKljMJjk%%jj%%JMLJKJmnjKjnkjMLkNJkk%MlkKLKj%k%kkKJjJJJ
55582cKkm%ML%mJMLJlkJjjJkkJJkJLjm%JlJMJJ%KLKmqqjNKLKJLKm%Kl%Jj%KL%lnlJLK%%JM%lkk
55510cLLjMKnJN%mkj%%jlJklMMJKmlKPOjk%kmjJj%%JKJlkKJjklkj%LJjJKjkJKknlKML%jjk%jlK
55438eLJmk%LLKJjln%P%l%%JJK%%ll%jKJK%k%LJkkjKMJjllLKmnpo%POKklkKPNJll%MJmrnjNNjj
55367a0%LK%%JKJj%JkMMkjkMPKknlmlJlJNMjJP%qk%JNjkKJkljMKLJj%l%%mLKkKMmqlkJMK%jMNm
55296FrlLLLjKM%ll%KjjJJnlk%LJLK%%j%JJMMK%kkqpjk%LNNMKklkKjJjkJKJmjL%k%%JLj%LjlJK
55224HnnJk%MLJJM%KJjmlknKNm%MJopjKMMO%onjljOOjpnKMkLLJJmjjojLK%JJ%jm%NJK%JJppJLK
55153fLKkkJ%LLKKjkJ%%K%k%km%KKJl%LKlplOL%LJnjLLNjmmkMNjjlkkj%LKkmlk%LLJ%J%kLNmpo
55081a1%KjKLKLKjJP%ojK%%lkJKJkk%kkkLNJom%KNJkjKOKmjJj%llJKlm%KjLMMMloljjKNkkJlkK
55011eKKLl%J%MMMnqkLMnmMNK%%lKJnm%Lk%KJ%klkjJjnkLNM%jkjLKK%lmjlnLKMN%jllJ%JPJjjK
54939BOLjmkjkkjKjkJlJLKJkJKjmlJJjJK%LJlJMKKL%knkkm%LJKNNmnkKjk%kKLkljJLLJ%lJjmLN
54867GjklkM%lLJm%NJomkmJLjjKLOPJpkllkj%jKOJllkMPmqkjLNLjj%KjjLK%L%kK%kjJ%jkj%M%l
54796Ak%j%KkmLLKJmJKjJkkKJL%k%JmpJKKjjNMLJkllkkLPlo%KJklnkK%LKooNQJj%KJ%JKK%%K%L
54724IkkjljJ%KKLJln%%jKk%M%ojMJl%jJjlJKLN%pmJJKNkoKLJ%kjLJmKQMkqjM%jk%JjK%kjKLll
54653A%mkLjmjJJMMKjJjomJJOLJjjKJ%%%lkJljKlpkjJQNMJkJkkJJKloJORMmplj%LNJno%NjlKKj
54581CmjK%%KKKJ%jmjM%nlLJkJJ%jjjKK%kmLOJpnjjMJKJmjKjm%NK%%lmjLQNjllj%Jj%J%%j%JJj
54509@kkjOOjlkJKKmmlljKOJkJMKk%jnJ%jMJjkm%KLJl%LMJll%JjnjMJ%j%kk%j%JMM%JMKj%llLN
54438A0jnjJLKj%mlKlojKMMkmkKK%kl%JLNNjjK%jmmJOK%JJ%kjlkj%M%oJMJlJKkkKjJJk%JOKnjj
54367D%jolKKJNOlokJJ%KjnJM%jLLml%kkj%kLKmj%l%MJLNljjkjk%KJJlpJNJJLJKKljKl%K%kmJK
54296cjKjkjjMO%kjjjkKJjjmKKJNJkj%mKMjKJjkjK%nm%OPlllmjj%%KLjMMjkLjJNmlKKmnMLjnmk
54224hJ%JMML%%Kjml%NOKjplJjJkJlkOJKKjJKMOKllm%%kJKllnmJ%%KLMJjmljkjJl%NKJ%JlokJO
54152aLKLmmokLKLJKKkpkMKKKJkookLMKkkJkLLJM%llJLjnmjKJk%OMLJjML%mkkmjkljKML%jKjKO
54081ILoq%L%k%k%Lkkjj%%jLNL%ol%kKK%%KMJnpjNMKJj%jLJmjLJM%pjMl%Kjj%KjKkl%l%KL%jK%
54009BJ%%jjJ%mnjPPnoKO%kkkKJKM%mk%KN%omlKKkmjjjJjJMMjjMJj%LKKMJ%jjJmoLL%kjkJJm%N
53938ENLlnl%Kj%jj%l%KMLlmkjj%%%jKLjJ%j%KL%l%MMjklkJLKJJnrjk%PKmnjNNMjm%j%J%LNN%l
53866A0%jjjjJMJkjkjLJnlKKJjl%MKj%%jmmkJMKjjJKkkjKJJjjKJl%LjKKk%Mjn%%jJLJJKKj%K%l
53795A1kj%KkmlkNLmKOJjL%jLlmolJJLNKKKjlnklnkLJjJkojOP%lklJK%JkJPNjkKKknkJJjllljK
53725eJjjk%LNNKjjkJL%jjKkpmjMJ%K%j%KLjmJKmq%Kj%jjMLmlLL%jJklJJ%JjKNlkKj%MMkkknKM
53653bjJllKN%n%MJjjLOJmm%jm%jjMKjKK%jm%K%mkL%kJNM%J%JJ%lokLLmjklLKjllJjjMLJkjnlK
53582a3JOQjJKlkNKmKjlk%KJjljLKlnMM%Jko%KJMNJ%lJ%JL%lk%JkoljJNPLon%LLJMlkNKknojmj
53511hN%jJJJKkom%MK%j%J%JJ%l%LkJknMJlJ%kkkJKKNMkojLNJjkjjkJPPknkljMM%%KlrmLKlKMK
53439aklJJ%KN%kJKJKklkj%jJjMMopjMLMMM%nmk%jjJm%M%JKJJknjK%JKKLjmJO%nJKjnn%MKjKJn
53368bjNKJlm%KLJKLJJJ%lnjLJKJjjmmkjjjJNM%okJjJOLkl%k%NKkkJkkJJJklK%jJKKLJpmJKNJm
53296BjjJN%mkJJ%JJ%jjLLjjlmJJ%%%JL%lm%Kkj%kjKNJjk%LKL%mmk%jKN%jlJKjMJkjmKjnJKMjm
53225ckmlJMKL%knnLNMKKKjlkm%jJLNKkjjmjMjlj%JMM%l%%mjJLKKmpKLLLjJK%lo%J%NLokJplNJ
53153fjLMJjnkNN%jjJNJnKLjmmkmjJJLJkJMJJjjnkLKMJj%klk%Jjk%jOJlLLklJOMJjlpJLjlmkLO
53081BJll%kjLJMMJkkjkJjljkl%ORNJjlknjN%kkNLmjJ%%%lMOjK%jjkLNKnljnnml%jJNLNklMkmJ
53010@J%j%LKlllKLKKmoKMk%KmK%jJkJ%JLMJkkml%k%LJllJKjLKlpoKMJPLmnLKkMJJNKJmljjJ%J
52938AK%jk%JKKLjpoKJ%L%JJl%KJ%jmmLLj%%llLMkm%l%KjJKMPNJkmmJ%mkJL%mjJ%KKklkMQ%llk
52867cjkMJmml%MNKMJnjjJ%kk%JJj%MKKljKJJKJnlL%j%JKkl%K%KKkokjkLLJkKNJKjkmoK%jLJJL
52795BJJ%jKJkjml%kLNJk%KJJ%mk%JKJlmKMml%%klNLKN%ro%jjLONOMjmlll%JLKkk%LLKL%lkkmJ
52723ALM%m%lJJjjmjKMjmjJMklKL%mkk%JMN%mk%mkLKjm%KLNjkkkL%kJ%%K%NNKKlnljm%KMMkJKk
52652ElnlLLKl%LjmkKKKLjkk%kkLJmk%KK%NL%%lkjj%k%JJNLkjjjKL%%klkJKlkJMJmMPnmOJonnK
52580fNKJMKj%jjmkLkKMk%LKopj%J%JKLJJ%JJjjj%%%KK%%jJjlLJlljJJknnKKJJJJKLNJ%JmojLJ
52509ClokLJmk%LLJJLlmKMLK%KJjokKLKmjKLKK%ll%%KLjpjLjkj%jllLMKMMmm%KK%Jjnl%K%KkKM
52437EknjKMK%mkkjk%K%%KN%lj%kJJ%%kKkjLKJj%M%qjQLklkJ%%JjkNLkj%kllJMJMNKolJ%Jkl%M
52365EJ%KjjLjojKKLLklJJjjJ%MKllpkJKMllJkK%klJO%onjKJ%%JNKkKLLJklnkKj%KOM%kn%Mnm%
52294cjkjJKllJK%jJJjLL%llKMJkjkJljNLjmjLNKjjklkJjJNL%ln%LK%%l%K%KjjKMKmm%MKml%%J
52222@MJlkK%jJJLjmnkpnPP%JLjKJlj%%lkLkJK%%%MJljNMk%LKj%LjpkNjlJJKjlomJMPJmJjjjl%
52151cKnlJkkMMNKlMLJjpnKL%KKNNmmkkkkmlMKlkMMJJjjjjLN%onkjjKLJ%%L%jL%jjjlokMNjl%O
52079aP%mj%NkmJ%nmkLJJLKJlkMjl%k%LJ%N%mnljjOMjJkkl%LMM%JNJk%L%knl%j%%%LkJ%k%jjmJ
52007ePMjjjlkjjjJNKkljkNK%KmnnJNK%JKNKpojKK%JJKJKLjkjoo%N%mlNM%j%JJJJk%lmKj%RO%o
51936CnmjNKkjK%%k%QN%lLMmjJKLKKlnlKknj%mkKNNJJmnj%ln%MjlLNj%Lkkj%M%mkJLjjKjknkK%
51864i%J%JLkJL%lkNL%jlKMjkJMJkkmlLJk%%KMKKkojNKj%lm%LKkkLL%nlj%jkKLJJJJMLkk%mJKk
51793AmjNJknJO%k%JJJK%%jkLKmmJJJ%%knkJMKJ%llKNKk%KKJkjnojkkLM%mJ%%NMJkljjJMJkjJj
51721bj%k%NMJjnjKk%Kjjjk%KJJjkKM%mjJmlK%LJjLJ%jjjlljLO%jJj%JLKlm%LjJKjKKkl%%K%lJ
51649@JKNLjjKmomjMJj%jJM%jkJLmkJ%kjLKKJJL%ooMNKjkj%KklJKJ%JjkjJLjmljJL%JNKJJkJLl
51578A0%jlK%j%%lJ%%%kkJKL%l%LJKJjmml%JJklljlJJJLJkkMLJ%jKjJLJ%lKKkJL%mjJJ%JjlJ%%
51507CJJK%%lkJkkjMMKlrJOJJknJKkJ%l%JMKkkj%JMJmnlnnNRKkkJJkk%N%jLL%%jkjmmkJKj%jkl
51436a5kMOjjPNjjjk%%kJkmjJ%n%QPMkm%%%j%kjjkkJLK%KJlKK%%jj%KJKklkjJ%k%LklJ%mlLJjK
51365iQLmlljJMLKKlmKjKMjj%lljj%LK%lm%LLJmmJKJK%%Jkmkkj%jLPL%mmkLNJ%KJLJlj%%Kjjjm
51293emKOJojMNLmm%%JKlmjj%OLKlk%JKK%KL%kJkj%%NMklkkk%JJ%KMJk%k%M%jjklkJ%%NKlkjkl
51222bKNJk%%jK%j%jklJJnjMONJjlkLJjkk%L%j%JJjjk%%JknjMJJKjj%J%nl%%KkmJMjkLLK%J%jJ
51150BJ%lmkjJKjljjokJMLJNKJMM%m%LLjlkll%JMjnJKmJLj%%MKm%JJmqjNKjJ%jJJ%%KKNNk%J%l
51078Gql%LL%LOJk%kj%JLJjkkLjkljK%NJ%kj%olJJJMLj%jlJJJ%lpkJjJLKJkkkjLLNKmJKJmnkJJ
51007a%K%plNM%MM%mpkJ%jlJQLknkJJ%jMJoj%JLKkm%JMKkKJL%n%%jkmKLkjKJkkJjkkjJKLNJl%%
50935bKNJnmmJMJkKM%llJJkkjLMJkmonJNMLKJJk%l%MjkJjm%ML%K%k%KklJJ%lmmkLKJK%JKLlpkJ
50864a0ML%JjJJlnkJONkl%j%POlmJL%klkKOOmmkmKJJlmMKkmJLjJ%jJJKJ%lkLOLllkkJ%JMK%mkj
50793AjKKNMKjpplLJkK%%lljjPON%mj%knlkJLNN%jkojjJKKJnnj%K%JK%JJlkLMLmnkmj%kjMKLOJ
50721AllkKKKjkmLO%KJlmlOO%jlJJLJlKLjK%lnn%L%JKlnJ%kJNKnJLlJKLJmk%jkjkmkMNklMJmjj
50650i%LLKlmKJojOKlkkj%KNLKLjJLk%jjJ%%Kjlllj%%Jj%JLJ%JMK%jjjklk%KJJLJljJLjlJkm%J
50578dKJjjNLlMLlkkJK%lljkKJJKknkKKlm%KJK%KJjMNKj%JJj%JJ%KKKLjknpmJNKLK%%mlMLjmKL
50507A3kk%KLJkkkJKnoJK%%km%%lKMMjljMMj%MJj%MKlkLKmjjk%ljMMnpkkKMLLkl%%jkjjJJ%j%K
50436BKKJkmJKJ%omKJlJNjljMJ%MLMKnmj%J%j%LJjJJloljLOJkjk%K%k%JkkJKJK%mljJMMJjjnJN
50364EL%oqkjjJKJNLKJk%Kkj%kJKj%kmJJkk%JjK%%kkLKJjojMMMJnlKK%JLknK%jLlo%Jk%LNMJkK
50293CMmr%M%kjJkjMMjmkjKJmj%jLLKjJJKjmjLJ%KJjJJk%Lk%JKLK%njjmkML%%J%jK%lLNKmlMMk
50221A2j%%J%jlmlJjnkk%LNQjqkKJ%Jll%kk%KJjQNknnKKJMLJjjlm%L%%%JJj%mlL%oJQKnljJKJj
50151cJj%LjpmLRMJ%jLJlklJKllKKMNJ%lnJKlo%OLkjnmLLj%%MKllKO%lkmkkkkJPJmmkjMLkjJJL
50079cJ%LjkLJmljKJKj%NMKmm%%%lKOKoj2mKJJj%L%%JJJJL%JLMjn%M%qoMKLLjllKkojMLMLLKjk
50008EkojJ%kmKMjlLMj%kJKm%mJOkkLJmjLK%kJ%%MKkkJ%jjknmJKJLNJKjJkn%%KMKK%klKK%jlmm
49937gjKKL%lKLj%%jlmjJLJ%KLKLk%JkMM%mk%JL%K%jNKnpKjmlKNJ%j%kkljL%LLJll%LM%ljll%J
49865@%jjMLLmoLKJLknmjjJkOO%jomKKjJJJLKJlnmlJLLMPknmlJKJlJLJK%jmkJkJMMJjmlkjLM%j
49794@JMJkjJ%konJPOlk%%MKkk%J%JJkmKOLlnjklJJJJOKkomJMMkkKjjkjljLkmKLJKK%lp%NJ%JN
49722CLlmKJolLJkl%LN%nkJJJLKmojKMLjj%%MLmq%Mj%MNmlLJMkkJnmpkPPOKmlJ%Jjl%KJLL%%KJ
49650Ijjjjkl%Kjl%Lj%MNJklkJJ%JJJlll%%kKjmL%jJMMjjkjJl%jJLjjjKJ%KJlkMJJ%mljKJJL%k
49579Bj%k%OMJlmkl%NKkjjklJMkljJLK%MjoKJjjLLjppJJKLjJ%nj%KLl%K%LJk%%LlpJNkmLKKMJJ
49507Cj%KKjklLLJJmkOKnnJJ%J%jjj%J%LKJJkkkmjK%jLJ%M%nkNKl%KJJ%jmKOJljjLJjmlJk%llN
49436@Klj%nnLNKjJOK%JJj%JklkjJ%KLkmKOMnmKlKMjKKKjllkMKj%kJJmm%J%JLjjKJMKl%jknjkj
49364b%lLMJK%%l%J%jlNM%lljkkKLNKnmkjkJLJjnjNLKKJJKklmjM%qnj%jKLNlmKJ%NK%LKomKL%%
49292AKkqlKKPMlKJnmLL%jJkn%klkjOLml%KkNO%MLJNlpqKNll%JLL%kkJ%o%Mlj%LMk%LJ%j%%pmM
49221eKl%%MLnm%JKjjNNJlJL%%mkLKL%llj%KLLJnlJ%mnKJJJN%nkJNJmjJLj%JjJJ%L%mmlnkOMjM
49149AM%kljMPLjJJmkK%kmmn%MOKnlJ%jjKkjMKjjjJJ%nn%LJlKNKlm%KLKjllJ%klkLNjlk%MNKjk
49078aJ%%klJ%%JMJ%JLjJjnkJLNL%mnJKnplNJJK%Kkl%%JkljNLknkKjKPNJ%JjjkmnmMMjljj%jLL
49006dMKlKKpoMOMLj%%mjkmllJOK%jk%PLmmJKJk%JOP%%j%Jj%j%j%Kjkjk%k%RMnlk%kKLkJQJmmm
48934Fnn%L%ljllPPLJJ%mkJmKLk%j%J%%kkLMMjnjKJ%llkJLjj%JKKLJkjknk%MKm%JjJ%%%%%jlJJ
48863clJJljKK%JkkKKjkomMNLNN%KKlmlkkkkJLKJl%KLLkjKJklJjlJ%JLJKLL%jjmmJ%j%J%%JMkm
48791@%J%JMKlookKkKNLJ%mllKMNM%lm%KjKNJlk%%j%K%nmKK%jklJMMK%ljJJj%%%%JOjmLLKjljm
48720CJLKk%MkjOKlnmlJKnqlLN%JNPKlplJkkJj%LmlMKkklKKKKkk%KJJ%opjMLjLMJJokLLkojMJM
48648cJlk%JjkJJlNOJ%jj%JKonNPLmoJKkn%Pjk%l%JKLJJkkLK%jJJJomj%PLJJkkkJ%JNLKklplJK
48576@Ljl%jj%j%%%jljJQP%%lJLkJMkk%jjJj%KMM%JLKmolMK%mnkKJJLklJKMkonKMLJjmJJ%klkj
48505bKMLNJonlLJkjlkJ%jJ%%jJKMM%%LjJmnjm%KMNKlljjLJ%jnljPOJ%mjOMnnj%JjjJMLlom%MM
48433DjK%lJ%kjJJkjjjkjjJMMOknLKjjjj%KnnkkLPK%JJKkmjolNJKLKKlk%JMLjkl%mjJkNLjknkJ
48362eOO%jjorlNRMkmjLMJl%JmjKK%jjk%lj%kMNnlLKLjlkJL%K%%%JJjjlkMLmnLKlnkLK%mjJ%NR
48290EJjK%kjJjlJMkmLJjjkK%ljKn%PmrkKKjJJLKlmJNKll%OLmqn%K%jKLLOMjKjJ%lJJmnJOORKk
48218A6ln%KllKjjjLJkJmlkjPNKjjJmmJNJjkkL%ll%jpplLJK%KMOOkkJkNO%nljml%L%jlKJlKK%j
48148bkl%KKK%LNlm%kKOJjlkkkjKNlm%JLMMjkmjJ%KjkJJjnKN%jL%%kmj%NLkkm%jkkJO%kjmKO%K
48076CK%%%JJ%mjJlkJNQJooKKkjjj%klm%LJL%jNNKlk%mm%LkkMklMM%%%%jmJOLKJlnpmNLkJ%j%J
48005b%%KKLjkkk%%l%KjJMl%QJ%jm%Jj%jmlKKjKjp%NLK%j%JJLLnpj%KOL%%mpnmJK%kLL%lljLKL
47933fMLKmnKKJj%L%m%J%mjjjKLn%%%OLJjjJjK%jkomlNJmJkjKkJK%klKKJJJLKjkkLNmojkLNJmp
47861a7JONjmKNMK%lmlJLLNjljkKMMNJjkmk%kpjPLJlJ%jLKKlljlMOKNKj%llJmmjJ%%MKJJ%Kjnk
47791GJjNLljJJlj%%Jjkjjkl%%j%MKkmpJOPNJjl%Jmlk%MJJ%jkJllLLLjmmJK%LKkjknl%KKjLMkk
47719ajjK%lJLMLlnjklkjOMNlo%J%kJLJ%%lpkLKkjL%LN%KLll%J%kK%KJjkonmJMKj%jk%LOKk%ln
47648a0KM%klljMNKKjKLmKLjklkjknkJML%k%JLKjjjnJKmm%JLPO%o%LLMjjkmJK%mplMMMOJj%kkl
47577ajJjLLmoJLKjjmjPQKnokKJjjk%%KKKjnkN%jljOPMjnjlmklJkjLLKnmKKljJjjKLJL%jNLJ%j
47505D%kjkJNjlk%onkKKJ%jjMLKKjnmkJJKKKM%llkKKlkJJKJMP%lmmokNMjJJ%NKKKmjnkM%KJkjK
47434CjjLjmjJKKjJ%m%KjlJ%kKKKK%JknlNPLJ%lkjj%LLjlj%lnl%%%Lkj%kLKkLLMMjlkk%ljJ%L%
47362AlkKjJLkKKk%Jj%KJljLKjm%KKKlJM%nmmjKMLlnljjJJJKK%J%LMjMKjjljM%omLK%kmjJJJ%%
47290aKMK%lnJjJL%jkmKMM%ljlk%%jJMQKnmj%KJKJljJlmJJjO%olJJNO%kljjl%%JMLk%L%lmkNkm
47219cjmMQKllLjm%KLKjjMLnpjL%k%KJJJkl%jjJLM%KkoJjJKjKJ%kJJJlm%kjKkl%LLjjlLOL%ljl
47147ckJJMKjLjorlKNJJLjkJMJKKjKknkJKjlJK%%K%jljNJlkLKkjjkLJmjL%MKJlmKJjkmjLLL%jl
47076bKLmlJK%kj%JJKKK%mlKM%%mnKKMkqmkL%m%POKjLOLmn%K%k%jlJJjKL%mkmp%Kk%J%k%MLJ%K
47004dLj%LJ%mnl%%kJJkkkjKNLJ%KK%%LMM%poJMKKLnmKjlKKmn%JKLLJmjNKmlJMJkLKkkllMLJj%
46932C%jl%JKJllnlNJjkLLkj%LOK%njklk%Kmljm%KJjJ%ljNMKLjlkmLMj%jnjPLjJKK%jKM%kK%j%
46861Cj%J%jKjojjMMJL%%LJjpmKklkLLKl%QLokmm%LK%NJJLmm%JLjjJ%lmm%KJK%JjmjLMkmjJLjj
46789ejk%%JKjjjKMKJkJNlo%KJMKmjjoJJkLMJ%jokJk%K%KKLLKJ%ljNNjlmmkJJ%kJLjjlmkKLlJO
46718@nrkK%Kjm%NMJK%%jlKKJjjLOKKLjknlN%JMknkJJJklkJLMLkmkjjLllQN%jonkj%kMONKnpkJ
46646fKjML%kjkmjJ%KK%%j%LMJj%lm%klMJMO%KJjkolkkJJjJKLKlnJL%J%okNMJJOLmkLJ%%KmlKK
46574HJkmjnoJQQKkkKmm%LKm%kJO%lljjMOJ%%jnkkjL%KLk%jmJ%JKljL%JKKmojjjMLJOJqlMNLjj
46503H%kkk%JLMJlkjjkjLjmLNJ%j%jjJJlkK%lKJmJNKpnMKkJ%j%jmljlKMMjjLKjkjLKJl%kqJNM%
46431@j%%j%JLJljkJNPKJJlnk%LLjkKjjlpokMLJ%lljJKJJJJNJmmkKKJJJkk%JJmnJNKJklNPJJjl
46360CKLjj%LLllLlrnmlJKKOPjjLkmqljjLJKML%JJJ%LL%OJqmJlJ%jKkkJJJjkjj%%MKjlLL%%kKK
46288FLLnl%KkkLKoqkMLJjjKKLK%%JLlmjkjJMMj%JljNLkkolKLOLjJkJ%Jlm%lkk%jjK%L%kmjjqk
46216a6MLLLNJkMMkkln%LJjm%NKkknkKjKjjKMPKnmljKK%JKkjjk%%%j%JJj%%JLNMJ%jkmljLMJKJ
46146A0JJJjjK%njNLlJJ%L%nljllnmLNNK%kl%JLMLloJKJl%%mlJLMkljl%JmkNNLkmn%MJkJOLlKJ
46075HlJMknnj%klMLjMLJnlLJjlKMJJkl%KOLjl%Jj%%m%LknjKMknjjKJJLkjKKjkjllJJjLJjJKNM
46004A0kklmlK%kJN%ml%J%J%k%JK%lnJNLOjnk%%klj%kJPMJlkjj%K%LKklkkjKMlnJMLkjM%ljJLJ
45933@J%jmq%PLKkkJkKOKjll%%%jkmlLLKkKOJjJKkkLNjjKkmqlMMLkm%j%OLLO%noo%NL%JMJjkjJ
45861Hjo%PKJJkJjkmk%k%LLKL%o%MJkpjLNKm%L%%jJLMJjLMmnmm%%%kkKL%lmmJLJjMOlJN%LJmJ%
45790A4onkkkmJNJJkl%nJNJNkl%jJljKJKJJmmJKKKLJmkKNJljjKJ%jnmjMKkLNJonKML%JL%kljjK
45719CNK%jlJJllkjKMM%kll%%LMJ%JjjLLKlojJMLMjlLjlkj%lJnn%KLkKMJjnj%KJlMNmmjk%KJ%j
45648AljmkMOLnjKJ%mlJKMJjL%jJJjljjjLMkojMJ%MJmjlnKLKOK%%kkljMjjJPLomlmmLNNQ%pnkJ
45576@ll%JLMMJmplkJNkJO%oMPMKnkJpmJKKjJMJk%onN%kLjljJKOOjnkklJLLKkJ%lJk%JlkkKMk%
45504b%lmkJJLJKjm%K%KMkKOlnnkMJ%l%%lj%LLjmnjLNNLjkmkNJj%mjMOKjJJljk%MJlkKJKK%K%%
45433G%mkLLk%MJmmmjllOJkMKJKKM%kmmjKJjkLJkjj%jmnlNOKJ%KJ%nlJ%%KONJlkkl%klKKKMMml
45361CJlqkM%j%jjM%kK%%JJKKLLOJj0rmjNOJJkmjk%%Jjk%JONJkkjn%MKK%l%kmjlKJkJMNLL%jkl
45291BLKkmjknMKjJkmKOjkLRQln%jnjjk%KK%kkjLJJJJJkjjkKLJ%k%K%%KKK%onJ%jmjKLLmoljJO
45219bO%kKKjnjMkp%jjJJJKLJmjKLMjj%%njLKMKkmmmkKNMmojlKLLLJlnmLMmJLlKOKjKL%%%klKL
45147Gkm%Kkkkkj%M%%LkjKLlnJJj%%J%KLlmJj%LMLJJkmjJMM%kkojMKklJ%MLjKLLlqlJJmkK%%MK
45076DljMkoj%LNJjjkkkJK%KK%knj%LJjknKNJKJMKkplmmMOOJmnjMlj%jjjJK%jJJkjKML%jLKlmj
45004bNN%lmkJjn%NNk%Kk%K%mJPKonkjkMOjjLJ%lk%K%ljKMKJJ%jjjkjjlJ%%%kkNNKMko%L%%J%j
44933Gjn%jk%jjKLM%kJKklokKkjLLLJkmjLMK%%jJ%%LLMLkkjlmjLjkjk%Jj%J%kll%KKl%MJjjLL%
44861Djk%jKKjK%jjlk%%%%mlJJLJJjkj%%mJLj%%Ljm%KKJLLMjrmKKLMK%llJLjjJjk%olKjj%KPL%
44789BLKjklj%%%J%KLmmlkNM%kkjJMJkjJJJkjMJlJ%ljLKkkK%%%j%K%kjomMMLjjJJkj%mOMqnNLk
44718cllLKj%%LK%JmmJMLlpjOKmJOLjmmj%JJKLJjjkjmmjJNN%jJ%jjJL%LOJjKmnkkLL%kn%%JLK%
44646DKKjjmn%J%JNMJjnnmjKKJjjmlKKKMK%MKlnljjll%JLPLLJjJKJJ%kk%%lmJML%%Jkjj%jj%m%
44575b%%NkmkjMKKkkK%kLM%kmnkJJJJMNLjkM%jljjjKjmmj%KKlJKLQKnonnjMMJLLKlqkJjkmLJjL
44503gmjKJKkJPN%lom%LJKLjjJ%lkjKMJJjmjlkMKjJKM%kjjlMKjMJlnkkj%%MLJLLJnoJL%JkKPN%
44431A3mJOL%lkmkkjlkLPNJmn%L%J%j%K%nmKJnlj%jjKMLL%lkjJON%kkj%lkJjKMLjlkjJLK%KLmn
44361G%ML%%%%mkjMJnkkJM%klKLJLmJjm%jj%JjkMMLjljlk%KKkJLLKJj%%jjnonkLLPMm%Klll%KK
44289BjkjojMJKKjj%jK%mj%Jkm%LKklLL%Jkl%MMKjKLnk%mj%%mjNjjLK%LL%JkKKllkMLJkonLLml
44218i%OOkm%lk%L%%OMJ%%k%JjkjJ%klk%JNNkl%loLOJMKllJKJkk%KKl%jnlJLj%jm%MLJj%%%%JJ
44146AnlNKkjJJKjjKK%oKOjlJ%j%KLLjlKKKKmmJ%jK%ljJOLkjlkJlljjkjK%kLmoLOOJkl%jkJkJL
44074alljkmLOKkJKjJjJ%jklLJmmLJJMJjomM%jjjL%k%k%MKOLknnkJOMjk%KklkJML%ljM%%LknjK
44003d%lljKKj%JjJ%%JLJ%JljJKMMjon%NMJjnmmjjjMMNLJjljJLK%JKjjjlljJJ%jJLLnm%KMJKKm
43931Dk%JKKkl%JKnmMPJnj%mmJOK%KkllkJKJJLLomLLKk%%jM%l%mk%kkk%JKNMkmJjKK%KJ%jm%NN
43860Hjkll%%ljJLNL%KJmlKjjkKMJjlkk%%kjKP%kkjLjlkJMjnnkKMNLkJjmkNMlKMkpmJ%%KNJJLl
43788Ekmk%KPNjJjomkJNL%j%%kkkKKK%jl%Jl%%jJLj%NjnokOLjljLKj%KLkmnlMNjnnjKJjJKLOMK
43716Ik%JnmJljK%J%Jjm%KK%MN%Klo%jkJJ%%%J%MKnjJlJM%lmjKM%kJ%%%JMjkJKLKKll%KKKLJmm
43645InjKJ%k%%kjjjKlnKML%LPkkkmjKJ%JnnJJOOkk%KLmojKPOKknjk%%j%J%jjl%JlLKlokLLMK%
43573E%j%KL%jJJjnkJljL%nlJjJLKjkJJjjJjoomjMOMMjljKOJjMNlpmjJLjjKLjJjJJlK%nlKMkkk
43502fkMNJklmKOjjJLjjlokLLkkjJKKKLLKKjnmJKjLNjlojJKKJllJKmJL%JJmlKMjlJjj%LJKLjj%
43430C%Jjj%jKL%jmkLLkkJJLLKKlqm%KjjKKMLkjJKjmlkLJ%JL%k%jjK%Jj%jJMkJLJjmmlj%LLlJN
43358H%mlJKKJlpn%K%LLlkjjjjjlJPP%kjkljMM%kJ%%%ljklLJKjJKlJMjjJllMOJmmjJ%Jkmjj%MK
43287d%LLlkkm%NKkkJKJjjKJkjlllLMJ%lLNjlJN%ljjJ%LM%%%%jlJK%knnKMKJlkJjljK%JJmlJ%j
43215a1NN%jKKkkJKKjL%k%Jlnj%j%Jj%KLJlkJJPN%lmkj%MjljlJNM%j%mkKM%kjkjkn%OJljJkjON
43144CjmJkkJJJkLMjjnKNlmkjJKK%JJkkkljljKLMLKJkjkjKK%%jJ%%JjMMkpjMK%Jj%%NNlnonj%J
43073fK%MMjkkn%LJk%M%kJMLJ%jljJ%jjJkjNM%LMJk%%%%jlm%KLnpmjOPMJkjjj%%l%K%KKMMllJL
43001A6Jmk%kJKjnl%mmKLJkkkLNjml%KNPJ%mojLJM%k%KPJnolJLlpjjjJjKNjkK%LPKmljkllLPKl
42931CkkJLJkJJKkkkkLKKK%lJLjjjkmjJkjkjKKL%jmkL%jJK%lkKKJnjMMK%jJJlnmnJJlnMRLjl%L
42859ell%jl%JK%j%LKJJkKNLjjMLjl%lnnkJ%ON%KJljK%ljLLJjkjknjMMj%JJJlJJl%K%JKkm%%kk
42787gJLLln%%JLjmjKJkjLJj%JMLjlk%L%j%JKjjJmmkMQ%oj%JJm%klKNNKjKJ%%JKJJkkKJkkKKkl
42716BkkJPNKljLll%ljLKJJlmk%kkMNLKlmk%%Jlm%Jl%KK%JMJjJlml%MKl%MLKljKk%%LMkkjkljK
42644aK%J%%Klm%LJj%jMNlnkKKJ%JjjLjkMLjkkkk%KmmLO%kj%%k%%lk%Jk%jjK%KLklkjMKk%jl%L
42573h%JJjLNKlkljLKML%Jj%OLkkonlk%Jjmjjj%jLLMJlJMKjjkkJL%kmKLJKM%j%lmkjLKkl%LKJl
42501b%Jkkjkm%JjJJLN%%K%lKOLmonLLmJLLLlnJ%%jjNJk%J%%KJjJ%kK%kKjlKNkl%JKKkjkmlJJK
42429aJ%jlkk%PlmLOMnmJKKKLJJ%jkkklJJJMKJklklkjjJNJjKk%JkJMMkk%JJ%jk%jJJ%K%jkl%%J
42358ALJljJ%%lKLkKKkjjLMjjlnmJPL%JmpmJJjKKk%JLNK%o%MJjk%jnMLj%jlmk%LLjlJKjljnJNJ
42286fMKkkmKLJln%JJKJ%KMjk%K%nmjLLljLJPMkKjk%%KJLjmmk%kL%jKMKjJKJkmllJKJjlKJmn%O
42215bNJm%JljLKJ%%LK%JjjK%%Jj%KMJk%nnjKjn%KKJnmjKK%kjKJj%NMJ%%pqLOMjon%NO%n%KJ%m
42143bk%MJjJjmJKljMOJnkjjk%kjJjMMJjljj%jk%L%kNKnmJKJKNjonj%jMMmJLMNkkmkmKMkko%PN
42071aNJmjj%KMK%mj%%jjJ%JKLjojjJMMJJLmjJ%lkJJMlnLKkml%%JONK%jJ%lnmmJLkkkKJKLjjjM
42000BKm%KJlnkjkJLJKLLMJkklmjLK%jlj%MLkJ%j%Lkl%lkLNMJJKJJlkJjnkJL%jjmKMJJjkKKkk%
41928CmjNMJkqpJK%JKLNLlnk%%j%j%K%Mjn%LKjJJKKknmKkmkLPPKjnm%NPNkljnm%JM%kJ%kkjjKL
41857CjnjJjk%jkjJJLOL%kNNlkjKJnkk%JKKLJmmlLO%jJkn%KkJJmlmjNMJmjLJJKKLjpojLNKJ%lm
41785dnjMLMLlj%kJ%JKkm%JkkKJl%J%%%%LjkMJmLLlnmJKNkkMJMLJj%K%jjllLMjkj%KKjlkMMklJ
41713DKjlm%J%n%PNnpmjKLMKjJ%kljLK%KL%kkjjjJmkM%%LKJ%jk%L%kkjjLMkljkK%%llJMMjJ%J%
41642AmJJj%JmkKJNNKk%Jkl%PJlnmJJ%klKLJKKkmm%LLKKKlmKJlJKkklkMKKOKmjKJnk%kjJLK%jj
41570B%k%%jLKkomlLMJ%k%LJmJJmLLOLolKJKLLJl%JmmjkKk%O%kKJjlkljj%KJLjmKLkkjkj%K%%K
41499d%%Jjlm%JLL%JlnKLL%LNK%jjlnmlJMM%kJ%LJmmKRLj%mljKK%%%jJmoLPJllKKmj%njKjl%OP
41427BK%JLjn%KNKom%jllLK%JkljMMjmk%NLJJ%Klp%Lj%kk%JKJKJjlmj%ln%MK%kjKKjnjNO%%ML%
41355Cl%M%mlJ%JkljjJ%%jJJ%%KLjjLLKMKklj%loJKjj%%jJOJlkl%JJMJljJ%k%KKKKKj%JmmJJln
41284fmlNQQNonk%KKkkKkl%MKj%jKK%KM%llnkj%LjlJJj%KJ%KLlmKKjmmljLJ%NMJL%m%jl%MLJkk
41212BJNJl%moKL%knkJKKLKomJMP%ponKNJMNLkmjm%LJJkkJK%KN%n%Kk%%kLM%KLkkjkjlk%KjlKK
41141@jKPLklkJjjk%jjOJn%Jjjj%llk%%KNK%%jj%M%%MKjnjjkJKNJKjkjkLJjL%%jk%jkkOOllojM
41069DjmmkKNJJMLjkkjJj%kjMNjnkkk%mkLLljLLOlmJkjLK%m%M%JJmll%NjkJL%ljLjjKKJljLJ%J
40997B%J%jJjlj%jmjMNLljJll%l%jKN%jlk%LKj%jML%klJl%L%LK%kjJl%MJ%lmjKKMLklj0oNL%kK
40927gJJKjjNM%lkJjnm%L%jKMKmj%lk%NNkl%jkmjNNLjKJl%LKklKNJmmk%L%lkll%MOJkKMlqlKj%
40855iKLKJjjjKPMnlKk%NJlnn%KKjKLJJ%%MJjjkjjknpkLPNKkkJKlnJPKkKJnoMNjkK%JMjj%JMjp
40784Clj%KnmLMJonJjJLjm%KMNKjkl%MMK%%k%JkJMNLmoKKjJJjkjJLJjLJpm%%KLJ%KML%mlJklJj
40712GjkkLJnJPKlmj%%J%K%KKjLJkk%Llj%nlJJl%K%%JJjJJJJk%LLonkmkJKJJj%NKk%jl%LJJKjj
40640AJKjl%KMM%jllkjLJll%LNK%%jlnKO%JPLmolkj%%LJMnj0jMJj%LJjk%%%LjJO%njjjljLKjpl
40570a0LMlnoLPKKLLkmjkj%lJOK%%kljJjjNMjjKJmmjMLL%%j%Ljk%m%%jKJKJlkk%Jm%LNNmmjJjK
40499aLMLnmJJKjjK%jmljlljKMKJjLLklk%j%MJkjL%lKKJLlkJ%jjj%O%lJnkLMjkKKMLmkMLljlm%
40428akjLMKkmkkj%KklJJnpJNMLjjOM%Kkmjj%KjkJMKK%ljjnl%KLjjLKkmlkKKjNKnnJMJ%KjJMll
40356fkljj%KKJKLJJnoL%ljJKKML%lolkkJjJMMLkjOMkklj%JLjJJKLl%NKl%JKOJljL%mjkk%LKlm
40284CkJJKkpKMJjkmK%njKOJlkjlkMLjJ%%K%lJLjjjkKQJok%jJN%n%j%NlmNPjlKLjkJKjmjKKjjj
40213CKOOJormKkjJkKmkN%%LjjKJjlk%JLJkjKLlmjKkjMJJLJlkKK%%JlmJ%%jjl%L%%NMjJKKMjmo
40141Bmj%L%kNLkk%K%jJ%jkJKjJ%ojMjmJNLJ%lnk%%LNjkjLNLLkmJjkjklLMMMNKmmkJjjKjJJMLj
40070B0llJ%lKN%%JjjjlnjKlmLNjklkNPjmjJJKmnlLLjKMKJKNLKLKkmjlrnJLK%LMjjLMjokJMJkK
39999B3jkLJKJooJNJ%%J%jkllkkjjJklk%Lk%M%JKjkKK%k%JkmJML%%KJlJ%lKLLKjnkJKLKMjll%K
39928A9Jj%K%%mllmMLnlnMNjL%n%KjJKjlnjQKjN%nplNLJJLL%lmkK%ll%POlmljKKLMJ%kj%%NNMJ
39858B9lkmj%JJklklLQjomkJjlJOKmljljKJMKkjM%nlkLLmkJKKJjmlkkjKKL%kMOlojJKjkJjlklK
39787eM%LJkkKLKJj%KjmjOJnkjkkjJKJKlkjllKNjokJLKk%MO%njKklk%QQknmkJMLKjllJjjMMJJj
39715EJkKLKlrkJ%MKmqlKLKJJK%kKLJjnJKmmNRlnJj%O%pmJLK%nmjJKkMNlJKjKLJKKml%kojON%l
39644AlKkoJNKjljKL%kkKKJ%mnjLjmKMkl%%kj%MMJjMKjNMkojkl%%%%MOKljk%OLkqoKjomjJLM%K
39572fLml%KN%mjJ%KLLjJMJ%lkL%jMLj%lmLjkklLjmmJMMK%kqlMLPM%JnmJKkkLKJJMJqlKjK%j%l
39501bjJJjJJ%jJ%jPNkJKjmJjjKjj%k%LOKoklkNjmJkjlkKjKKjjlMOKJjook%%LK%lKKKjjMJljKk
39429@%JnkQK%KkljKLKjlJ%rkJLLL%ljJMKknJNjk%%LLkqj4mOMKNP%oJ%%OOKnkLkljkkjJLjkKJJ
39358CjK%jKmlkJJ%%l%KJJjj%M%LMkjlnkJj%KkkMNKNKm%K%po%ljJ%mJKkNOkjKkn%JJMJkj%KKLL
39287GnnjjlmlKOMk%KKlj%%NJjJMJokKJmjMJMJ%J%jlkk%JkmkLKKklMKnmJ%KJJLMLjmmjKjkL%%%
39215bmLLjML%njlkJLLllONmmjJMMkmjkJNkkm%KljjKLKLJmljLKknjK%%JKJJKjmqkMLMM%ljjmnj
39144a3MOKljLNKmjJMkkNjn%M%kkJkkMKlmJKLJnjOKlm%JjmJNKJMKlkjJkJNKL%lmJllKJMMjnmJ%
39073C%LK%%OKllmnjK%lll%KLLMKkm%LMJmkL%JkkLJLNjllnljKMJ%jkLKlljJ%kMJkk%K%mnKM%kj
39001cMKKK%mnKKkkLKNMmm%%%l%jml%lmLNLJj%jjkkJNK%kjKKKM%nlljMjnk%%kMjp%NKlJPKmnjO
38930f%lLOLkk%KKk%lkKKJkJMkjKklmJLMJklnl%LKj%%jK%nKPKKJJJMjlJmp%Ljl%Kj%llMQMkklk
38858cJJ%j%JLJmnkLOMjpj%JMLMjmMLml%klnJMkkJk%LLJJ%m%JJMKLJj%jk%kkJjk%m%KJMNKjLLl
38787A1jj%JKK%%ljkk%mljjl%L%jKLLLJkkJmo%mkLMQPLJlnl%jjJ%kJLK%%J%LJ%mnjKN%n%LkmL%
38716Dkjj%kj%JjlK%%MJkj%lljJKNL%KLnlL%%L%lmjjjKLJLLmllk%llLMNJjlnmLPMPjj1lmjMLJJ
38645aMjlJ%jM%kK%lkKOKjjJjjKkkllmjMkk%JKl%MLJKmmjKjjKk%KJmkjkJklLOMMOLnmlj%JJJkk
38574eljJKjJQJlookjj%MjlKLKkLMLJkomML%jkJjmj%JJmLQJlnl%KMJkNJljnJOJkl%lKNljJ%LKn
38502hjK%OM%jlj%%LJlJMnnkKL%LJmk%KJjJJl%LJJjmj%jjLKjj%JljKJ%J%JLKNMjomjjKKJLL%%J
38431A1jlkj%LJonmNPLKomlKL%NJKL%Kmm%LLkmmJLmjJkJJlkMK%LKKjjKkjLN%jjmjKJjMM%lkJ%L
38360A8Nklkkkj%%ln%MjlnkLLKMLjlloJJlJ%LKJJjJLmnKKJKJj%LklJLKKJkkmkjJNLJljMJjjmlj
38289CjJ%MMlkJKKLlrmMJmjj%LJMLkqlNMjkL%l%jJL%%lm%KOMmnnkLOLJLkml%KjKKmkLOQkpjLKk
38218IjjkokMNJ%OKkkmnnk%KLL%jjkNMmjKJjljNjmljNOjkMLkmlolPMjkj%klKM%nKKkjLM%%JJLN
38146A5jknnjjL%nmMOJmjKmkRO%jjm%JJjllkJMLmnkjLLKJJ%%K%kmKLkml%%MPjm%LLJlnlkKL%jJ
38075AJ%K%jMP%lLlqkKJl%LklkJLJjKJj%%jlkJLkoJL%%k%KlmKNNJjnmKKjjljJjn%MLJonJjj%kJ
38004a9NLK%okNLl%jlJJjlKNKMM%mrojj%KL%KPQKkllJkJNklJ%%%%KK%%%lp%%m%%%kJNLJM%jNKm
37933aKJkLkjLjmml%%jJJ%mrlOLL%kLNjlkjKL%LL%jpnKJk%NOjk%lkJJLljOjnm%LKJML%NKllMNk
37862Gkjj%kJlnl%QLmplMjjNMjl%NJmn%MMLKlnlNLkj%NLmonLjkLj%%llK%mjJK%MMkj%%mjM%kjL
37790hJjjJnlONPMklmJkkJjjJJl%K%j%JKLJjk%%mMPJmnk%%LJJKK%mnKkmKKNkmKkkjmKPJkKJlmj
37718a1MLMKjMKkMJom%JJ%LK%mmlllKKLNlkJk%%%J%j%KK%jJnokk%JKMJkjO%%LlkMJj%lkLJjmlK
37648iJlk%JKJJ%jMMJllljKK%%LM%jjJLll%%%JLJnlJLjjNNlolKK%%J%JjjLjlJlnKONKlmjJOJnn
37576e%NJJJjJjlmkJKKMJkj%JJ%lkLLKJKkl%k%ljMKLJjJjmlJjJJknm%%LN%npmJLKkJNKnlNN%jK
37505c%jKKMMjjknm%JjlkLNLJJkkkmjMLkkkljLknMRLmkLmoJKJkJPOlonJJllKLKll%jJMLLJklJj
37433g%PLjkmmlKjljK%jJkkkMKkM%mlJOMkjNL%KlolkKOMJkJjkjkK%%jnjJkLM%kmkLNMJKlnLKK%
37361@k%MJk%J%%Mkl%jlmKKkk%%kK%%klMJj%L%jNMKkljlK%%l%%jLKkkj%LJJJLjkLknj%%onNLk%
37290a0LKllNKjkkKMLk%LJM%nmjKOjlJJkmjJ%%%%j%OM%jkljKJJ%j%lkjl%KOOOJonlm%NMK%jK%%
37219GKJknlJLKj%%L%kJJKJjkMMk%KJlj%kll%MKKjlJKJjnmKM%mkKKjljlmJL%%ML%JLM%nnm%%%K
37148BJ%%L%lkjKLJKkk%%KlmJPJrkLRNnn%%jkjJkljKNJJjmjJkoJ%lJKMj%NM%kkkll%lLLJMMjkj
37076@kkJ%JLjm%%kmjOKmnm%OOlkKkkKMLkjkJKklMNKJKj%K%%MJjK%jjnrjNjjK%jjjJJlk%jj%%k
37004a0MKjJKJln%MllJL%kKkjMM%JKJlmmkMLkpm%KLKJ%KklOLJLjlkKNL%kk%KjkJK%j%JJjjjknk
36934hMKJKJ%%jjNKlk%jkKjmjKjl%%%jKNkjlkLJKLLkmjkJ%mMM%jjjK%jlmLLJKlk%kl%LMLnjKl%
36862h%JM%nlKLKmjK%jjj%KL%%%JJj%JKLk%Kj%%lkkJ%j%llLJl%jKNLlk%%k%J%njLNLk%j%LJklm
36791a1k%NOJl%jLLkjKKlnlJKLLj%JKJjjjjj%%kmlJLJKNOM%lmkLKkjjJJjJ%%K%K%mjjll%Jkjk%
36720gKKjjLM%jNNKmljJkl%%KMMJnkJ%jJJlok%%JKklJJMMjmmKKJM%%%lkMOjjjjJ%LL%kjkkJjKJ
36648Hkklk%%%JJL%kkKMj%Jj%ml%mj%jLNLLMLnn%lJJMNjKJjjmjJlk%NNNJqnj%jmjJML%JJKkKKn
36577GlKKklkMMJ%lk%%KLklJJMO%lnk%KJjJjlKKjll%L%%ljNLKjknj%NMlkJjjJljLKKLlk%Jkljk
36505AJKLKl%LjlmkKK%JKJKJknmJj%J%%J%j%jkJJJkojL%kLLNOJnm%J%kmoJNKJknjkjkKK%klKJl
36433a5KNNJklmmjMKKL%%J%KLkjJjJjmjJjKLNJl%LJlJjkjkLLklkj%LKKK%kmmkKOML%jlnlJ%jLK
36363@kjjjlk%JNOkojLKKkkk%NKJ%KKjjoojJMOL%jlkkJ%JJ0MlmkkljKMJ%JklnjjjJjjJJKKjJJJ
36292@j%Jnm%KjomMP%LLll%LllJjlj%kjj%LLLlm%LKJJLL%ljK%JKMMlonJM%Jjqn%NLlkKLKJjmjL
36221hMjljKKkjLJjLKKjmjkjK%jJMLkkjjjKKNJjJmokLN%jl%LJJllL%kkjLjj%jJJLLlnlmJMJj%M
36149d%JjljJj%KK%%jkL%ljKLJjkljjKM%omJMOjnJKLMLK%J%Mmqj%LOK%lmkJKLM%jkJkoJJmJNM%
36077HkjjknJK%%kjKKk%kjKLMlmlmKJ%JJklKllLkkKLLKKjjLLjl%MJJJkkKKkkkllJOJ%MMjpjLNN
36006A3%jlmJKj%%J%kl%LM%ppLMkllKMKNLmnkKJJ%ljlljJMK%k%JmmKMNJlk%Jk%LMK%%J%ljMJ%j
35935Gkjjj%l%KLjjJk%%njNMJJknmJMKJ%JJK%knkLLKJj%%Jjlkkj%KJjJkl%K%JLLJkjmm%LLlJj%
35864bMjj%j%LMJjkjnJQJl%L%olKMjkK%opmKPL%jKK%Jlj%KJkJKKJnJKnJKjJkol%NMljNMkmmmk%
35792a1jKMML%llJjkKNKkmLLojLKkk%jKJ%KMMKmm%JLln%JJlKJjJkkJ%l%Kj%L%j%jjmkMJJkJKk%
35721fJkLN%mjJJLLJlk%kJMLJmjLjJJlllmLM%jJKj%kll%NK%%jnmLMKKjj%MLlkKJklJjkjJL%m%N
35650ANJJJjjkJ%okjm%O%k%knKOkkLMK%ljKKjjKJlkK%klKOjmJK%jLjl%l%J%lkJKKKMJjl%%mkjL
35578cKJKKlmk%LKJMMjKKkk%%nljlkLPNJll%%jjM%kJJJ%%%lmLKkjklkK%kJjJKKLjJL%m%%JLKjl
35507D%jkJKjlk%OLn%%mlMLjJjkjkjjJKNKkolKMLko%LJjKJjlnjKjKKLLjjmkllJLNJj%KkpJKjKK
35435eLKJllLMkn%NMjpnLMLJJjljKk%LOKom%JmmLL%kLNJkkk%JlnjLJKNlmJ%jLMkjN%nnjlkMKjj
35363hkkljKMl%OjjJkmJKjKMLJjklJNMkk%kllkLK%%JKJj%jjJJLLNL%jjLkl%JjKMkllm%%KLlljK
35292@JKJkmnkMNJLjm%MM%jkl%JjjKjkjJ%JJnjJk%Ljk%l%J%%JNO%nm%KkjKj%jl%OMjmlJKKjj%Q
35220DMnjkl%JLJ%NKlnkJNKkJKkj%lmkNMjk%JkkmkkKMkJKJMJjKLJlnjklKjjMMkkk%JjKkJN%JJj
35149Dl%MM%kkk%lnKLMKlkK%nlJJjj%LOlnKLkljLNJmkKM%knkLJLKlKJJJJ%jkk%K%MMJ%KJnqlK%
35077BLMJLKmJMKll%kjKllk%NMkkj%KKkjKJ%llMJjKjjMJoo%%jL%j%jjkjKKLjjKJlJM%l%jl%OJj
35005G%jmJMjm%%k%MMKKkqnMNM%l%jmljJL%%%LKmkJkl%JkmlML%J%JklKKMMloj%Jk%MKKjklk%JM
34934a%%knk%JMKKJnjL%JJkkMJjk%%MOkmJjlkj%jKjkLPjnkLJlJJJJjljKJJKJ%kNJk%%%kJjjNMj
34862InmJJj%Kkjnp%%KLK%kmjKJJJK%MPjk%%kJKjjkLLjj%JjjJJ%lj%kkJJjJJ%olKkKL%K%JKLkn
34791cMMmn%%lJK%j%L%%jJLJKkl%j%jjkk%KMklKJjjLOjoqlMMJKL%kkkJLJJJKjpnkkKMjKM%kJMM
34719ClnJj%LKJo%K%KJj%k%LJJ%mkJjJLJJJj%l%j%Kk%moKKKLjk%kk%LM%kJ%J%LKk%%klkl%%kML
34647eJ%kJJMJmjKkKKmkJK%kNM%%J%%Jj%koJM%JKJLMJjknlK%%K%ljjllj%%jljLKJJK%%jjjkjjL
34576ePLJjkm%MLllJKKkn%JJJjLOjkklKkkKk%NjpKLkLJ%jnkKKKKjnnJKKJ%LKj%KjnnmjJ%lkJLJ
34504a1%JKKKk%JJjkJLKlolK%nkONKjj%%ljKMQMkKJklmmmlLNJ%KPL%mnklJKjjLKkKMj%kkKJjLK
34434GmkJM%kMLkjJLj%KMJmJ%jJnp%MKJjjljKknjK%%KLLJJk%kpkKMM%llJM%mkjkjPOljJKMkmJj
34362FkJLj%Jkj%jj%Jkj%J%kKJ%%JJLLkkloJjjMJ%j%%%JKL%j%%konjLLLL%j%%Jkk%MNklKMjnjK
34290EMJKkmjJk%Kj%kkLNKljK%%kklJMK%%JkkkkJML%jkKLjklmJMMkkMLkmLLljJK%%Jj%KkklJjn
34219CJLL%k%%JlJLj%%kkj%kkjMNKMJmmklKOKJKknmjJKjklm%K%JLjkJKklKKJJJnolKOJk%j%Kko
34147a0jPMklkjjJJJJjLJm%JkjLL%KjkJj%%j%jLMJ%knkJj%LM%k%jkKjkLMK%jjnoJLkkjjLJLK%K
34077@JJmmlKMjlkJJLLjj%%l%%kJlmLO%jKK%kjLM%mljjKLl%JJL%JJ%kmk%LmlJ%kkNOKmk%JNjnJ
34005eLMjnJjjkjMJ%j%JjjJjL%kKM%%%mjljMM%KJlllLKJJkML%JmlLLmmKkLJlKN%mjj%j%MkjLJj
33933DnnkM%nmjJNJjK%kkkNJj%KJlKKj%JJ%k%jkjKNJjKknlJjlmMOLPKnkJ%lJJjJKjkJLJ%k%KKj
33862D%%kjLKJJlomKLkKKqjMKK%LKmk%jl%JKM%LKjJ%mpjJ%JKMLNKjklKjj%kk%LM%kmm%OOJlonk
33790bKMklkmkJjkJKKJlJMKklKKOL%%%KKjlKKJLkmkJkkMKm%Ljkl%Mmql%K%%MLj%%jJJL%n%MJlj
33719@J%%JKjmmmj%OPkjJJLKL%kkokLJLkmMMN%lJjmljJ%j%MKlkKKjK%kl%jlj%JK%mJN%km%LJ%n
33647elMNK%nm%LNMjo%KJJjKKJ%%lmkjjLRNKlnlk%KkKKjlnkNKjJkjJlk%%LJnmKLjJMKjlkk%%LO
33575BKml%j%%l%JJjl%JMPJ%%lmkJjkMK%jjJJKJjmkLLjKNJkjK%k%jjKLnlLJk%%%JKjkLjo%%jkm
33504iJKJ%jkjkKNJ%LMjmLNlm%KKK%lm%jKLkJNLk%jomLKKKlokONjljKKlmkjJLMMjmjjKJ%%j%Mj
33432EkKkJJJ%okK%%lmLOJl%%jnkLKJJ%nKMK%JLllJ%j%jkJLKlnJK%KKJK%mj%%JjmmJJ%jKNJjjL
33361BKjJknjJllKjkJ%jKKmmK%LNKKkJLJJpl%jKMLlkJMKnqmLJkjMJpmlLJ1%oJJLKJ%jjkkMJkK%
33290fplKM%kklklLN%LK%ljknJKKL%lmjjkjJKl%JNL%Kjk%KJJJl%JJMJmlkkkKMKJMMj%KJ%L%mm%
33218f%J%kJ%JjJKKKKjkJKkjNLmmJjkLJk%MjqKOMmqk%kmKOJ%jJMKjnkj%%JJljML%jl%J%LMKkjJ
33147BKOLKKkopmklNNn%LJKJkjJJJ%qmJj%LKk%L%OJon%OjnKLLKloJL%KJLLnpjPNjmLJkMJKKn%%
33075Io%L%j%lnKjkK%jMOMlj%JjjjjkmjKjLNjkmmLKL%lj%LKlkjjOMJJlljk%%K%KLJJJjlJJJJ%j
33003IJN%npJL%klKjmLLkljKLKLjlKkJKJMJqkPkojmjKKKkk%KJ%JjlONkkJ%jMjmnkJKPJoJKJL%j
32932IL%jlmJjjLJll%JKJKk%KJJ%%KL%mjkml%J%MMkol%kLMNLJ%klkj%joq%KKMJm%%JM%JL%KLJJ
32860A0%JLJml%%kq%Ljkl%J%j%LjlLLloqkNMJ%LMKMJjljklKJljj%Ljj%mkljJjJLK%onNOKkjMOP
32790Fjl%lkJloJjJ%lMLJMKmm%llJ%KkKOkoKNmm%jjm%LLOMJKKk%%JKnnKJlllJL%lLLjj%jJ%kJ%
32718ikJlmJMMKjkJNMjl%MNLkn%%l%KJj%J%%jKKL%JJklnJKm%jkkj%JKjjJKkjJ%llJK%kJ%J%lKM
32646ekmmlKNMJjLKjMMlmOMpmJLkjMMJkmnMLkMJkm%LJlmj%NKljjkJLJJKNQJJjnlok%KJkJ%klLO
32575HK%mnmmnnLLK%%LLLLJlkjLK%%kjjllmJKJ%lKQLnnKKMO%%lnmk%NNmjklkkOMK%%KJJJKKKkp
32503CmJNjkMMjq%MLOLnqlKLKKN%nkJjj%kjLM%LlnLLnnkmk%LJkjLOPMjk%llKkpKKKMjKLk%kJJl
32432H%JJ%LMoj0mJK%k%NKjJlKQPkqlJ%kjLKJMK%jmjlmkKKllj%ljMnlOMk%MlkKmkLLolL%ljLKK
32361dOLjKJnlLKL%nlkolJJJNQJJjomj%mkLJ%jkkKMMLjJPNnm%mkjl%M%j%kJmjPOkkjmjLjnkMOL
32289AknlOMJlnkjKKKLjlmjonOMMKJKKJlnjJKJlJLkmKKKJnqKPOMJJjmlmjL%%jK%pljMJMNjjJ%j
32218ajkjKlnLPMn%KJklKJ%NJkJMJkjK%ljjj%%k%%jMMjlljkJMQMkknjKJmoj%j%JMLKkj%JKlklj
32146dK%jJJ%%kJOKjjJ%lmkLJ%ooKLKjjjmmMLmLPOKkKLknkjjJkjJKKMNjl%kjjLKnm%MPMk%%nok
32075cLOjon%%l%JjKQkmMJmKJlk%NPKkonnjNKJjJLlJMKLJJkolljLMk%MMlqnj%Kk%OMLloJJ%MNj
32003DkJJLKMJ%lmL%kNjjLMlromkJklJLJ%%JJKlmOLkjKN%jNPKmmJL%nojjml%NOkmJKLKmnLMjLK
31931IJLjlKkoKLJLLLjmkkojLkKLjJlkKQQK%lokjKLkmJOJmjJkllk%ljK%k%KjjLkjkjjjJJMJlKj
31860@jLKmpmlLONLlmk%K%llLKLOK%JLlj0o%QPjk%%kmkK%JJlmlJPMKMML%npmKMNOjj0qKLMJmnL
31790@QMlnM%plk%j%MLJjjlJJ%OQKllmkJjMjpJKolKJLNLJkm%jlKJkjkJMKl%jkN%p%LNjlLJJKkk
31719CLJ%koj%oOJ1LkkKOjqro%MQNMl%KpKMLLqlLJ%lJJ%PKpkjJJomKKNQLkmkjjlKPKLLml%nqnk
31648cOLlJJkk%JlMJ0%mJjKLKlnk%MK%J%lm%kkKJjlKMJjmjmlLL%%%%jKO%K%pnnjMKKMJ%Kjm%KK
31577FNJmnjONLnqKmlJojOMJmlkOMok%LRJjJnqm%JKK%kKNkopjLLK%jLOklJ%%mn%K%%%PMolMMkl
31506djlMPJJjmjjjOQJllmkKLLMjplllJjjKM%opjNloJMLLML%jknrkMKjLQLKLmolkKPKn%jLN%ML
31434A0onkmjLkmkLPKL%j%jjmjLNM%jkkkJLmnoojKK%JKNL%jqkOJmkLLKLLkkJ%JjjjJK%KKkkJJl
31363ckLKLKjJK%kjkmk%LML%l%JmljJ%l%J%kJMl%ONKll%ljLKJlnkkLM%MjmJlkkjJNMkK%k%KN%l
31292CmoJMJK%kklmkOOJLL%jJmm%%KKLKmlljKjo%P%lKJlJ%kK%KMjnKj%NnlJm%JjNNjljjLkkk%L
31220dnpOR%koojJJmMJ0Lnn%jNMjkjJlnjKjnkKLjLM%KjmlJJKMJJKkklLMOLpmJON%jnljjL%j%km
31150iJMJnoj%%%nmJLj%MjmkKkmLNKLOJkKllKjjmjNJkKLkjJjmJKmJLlomMNKKKllNLnrkKkjNRLp
31078a7m%NO%JJmkkk%lkKJkNNkkjkJJlj%NOjkKJKkoJOljJjKl%MjmmLkqKPMOMj%JJjkjnmMKmjLO
31007eKm%kkOKjMjllmjMjljlKKmJLKJPL%MJmJM%qpkLLKOL%JjklkkjJ%mkJmKQP%onjLOknJ%jjlj
30936i%NOklJJKKonkl%ML%l%MOMJjnjMKmpjJLMJLkokLklLLNlmKkkJ%jmljLMJnoJjJMj%KjmlKJM
30864a1NlOP%%k%mjNjmmJJLK%Jmno%jMJ0M%oolmJNK%OOj%klMM%NKn%JmjN%JJlNN%nnljK%LKnl%
30795CMJmKKJjlllljKjKKKNMKJopnNNKOJljknlJ%kkkkjjlKK%NNj%%LOkjJkkl%KJKLkmKM%LNjok
30723IKLJKJ%%mojN%JPLkomjJK%KLJnm%%PMmmJjplNN%KKJnojJLQMlomokJj%NLlmMPJkknrqlLMK
30651fLMPJllmJ%J%%Llm%mlOMomLOKJLK%mkjJMJlmj%KNKmnKmnJlm%KMNjn%NLKMJoplPJ1%ljJJm
30581A%LlkJMOj%OjnplK%L%lljK%JLJjpqllJKJJkNOMJljmj%KNjmpLjmLJKJ%JJjlkj%KK%mmJNmn
30509b0NNK%j%NNlj2lMjjOJmJJKNJjomMLkJLMKnmKjkjJMkljjPNkKjk%kmkNMjJL%mkMN%ll%JLKj
30439DKJJlok%lMOjjJlllmljJLMkmMMLLjkkjMj%%jJllLLLMjkKJJ%mkLMK%konLJmjj%KLJ%JmnK%
30368elLNKkokOOkpJNlp%J%KjlmnKMj%%kJj%Kkk%MMkKNPOJnl%JlJMmjNLK%mmKMkjjJKKKmkL%ln
30296alJJ%NRjojkmkkKKnjLjk%%%nlNLm%N%jMKmmmNNmjmkL%lmJJkLRKoJLMMK%mnjMNJkKJ%JLNJ
30225A4nLJ0JllmmjLLj%J%kJjnmn%KKN%omkKLJ%jpjKljNMkjJnm%JJjKLkkjKKjjlnj%KNKKkkkkL
30155a2MMlnKpkMklkMNklmjmKMLLJLJJNjmJOklkkLJJjJ%mJMjnjJjJLOL%K%mllKJJklKkkMMM%ll
30084dljJLKLjk%jmmKOPklJMRKlJKlljKKjkmnmmmjLOKklJMjmkojJl%%KOlnLLJ%nkMOJ%OMn%NK%
30013EolLkkjLKMN%jl%LlkNKkll%jMPjooLM%KK%%NKnomKKjLMkllJQOjom%kjL%K%kkmJJkLK%jKK
29941Ijljk%M%KkpjLKJJlkKKNK%%llnlljM%jPKqq%jMN%klkjNKkLjjjk%%JjMQLJjJllmmkkjKKKl
29870h%MJJKJ%%%mmKKjkonJKmol%JKLKMKnrnJPPJjKkl%j%NKjLKkmLOL%kllkMKNL%jmkK%jmlJNJ
29798fkJL%oo%LMLLNJnkJM%j%n%MKNJqlKjjkkljJKljMKkJ%jLL%mpomjKONJ%%LknkKM%k%LK%KMl
29726epkJlKKJJmmjLNLKjjlmkML%KKlmojK%KKJLKk%jkJLjlkk%NL%kklkMJkjml%jkNPkkkkjOOjJ
29655a1%lJjlnJ%%K%%MKnmLM%j%JLKjnlOOlm%LL%jJK%kl%jjjkkkl%PJ0LknlKLJ%JM%jNKknlJ%J
29585dL%lmkkKJlppmMOLklmjKMPjn%kjLK%jk%JMPLlmqlLMJjmkQNKJnJLJKMloJOMllkmj%LLJJ%l
29514g%KJKklLKLLjnn%jljK%kKOjn%JjLLlk%LMKLjo%JJKl%MnnOPklNMjkk%%LN%lKKonjK%kLKjj
29442CJKjjJJlnqkNOJqlLNJ%Mkkkl%%JljNkJJKKKjl%LKlkLk%KmjKLjlkmmjKJJKJlk%J%JKMKJjk
29370ekjJMKL%%jnkLJ%%%JNNlj0lJkmjL%kJM%k%k%MM%jjkjJKMJmjL%jkKjjOOLkk%%jmjMM%jLON
29300B1JlrnJLNJljKjomKJmkJJlkllJ%%l%P%lMLJ%kJKKln%NJo%MjlKMLK%lmmjKL%l%N%l%klllL
29229a0NLLJkJJnnKNLMKJjk%LLKJkjlkK%%KOJkK%kJLmnKK%j%Jjlk%NLjjklljJJ%LL%Njn%%J%nJ
29158A0NKJjJKjnjKjKOLjknqkLL%nnjkJNKKKjMMK%nj0q%OOkjOJljJkomLLljjmLNJKJj%kjJjmk%
29089bKM%llkkJJJJjJklK%jjJjlj%JKjknlLMMJJJlplMKlKL%%j%jnKQ%olkkLMK%jJ%%%KMJ%kJLJ
29017aMJkkK%jLJjl%KjjlonLNJlkkk%KLJJLjmm%NJn%%kk%MJLMknn%NOOjlkkl%KjmjJLK%J%%jLK
28946bJL%%J%LKjljJKLKKkjjmlkLLL%mjJLKJJjL%%kkKlkOjolkKKnJLm%k%Jm%%%KJKjKJn%MPJnl
28874AmmnjMMK%LKmkKLjmkKMjknkLMK%LLMJkJkmjKKKJmlJJJLLonK%k%%%LJ%kk%Kjj%JK%jkjJj%
28802aLNLK%pmNK%NLkkk%KjJNOJk%%mkMMKkj%kjJ%kJJKKlnmk%%K%JJM%njJ%Jj%jJLL%j%lnkJ%J
28731A1j%JJ%KJpnkmjLN%j%JOL%Jjm%KJ%lJKklLNLJ%jml%lkJ%j%%kljKJ%kmmJKJLljlok%LKjkl
28660a6JKjllMN%k%JJJJKJj%JLj%NjLOJKKKKj%%KKkllklmjLjjMLKJJjjlmlkj%LKL%kKjlkKMJ%J
28589A0JNQNLJl%KjlJ%jJ%%jjJ%j%j%kjJjnpmjKL%kmkjLJkKKKM%kln%MMMJ%%JJLLJkj%jjJjl%J
28519A9LJjJLlkLLJ%KjnjMNKlJJlk%k%NLJjonkjJjmmjk%%KJlmljkkK%LJmnm%%JljjKL%jkjjJLm
28448a4ljKKkkJKjJ%j%olKK%ljNLjkjj%kk%J%%MKKKLLJjnn%%komJ%JLKjljLkkJjjJ%LJLMkmkKM
28378b1JjKN%jjjJjjLJ%%%J%kkM%kKkkj%KJkk%NLKJKL%%kmk%%J%LJjJJMJ%KJkmjK%kjJKKlkjJK
28307cjjjkkLK%JJPMk%ll%jj%KKjl%LKKK%kkkj%j%j%%jkJLMLKjnl%%jKKKJ%kJJj%jj%%LKJJ%%j
28235Hkk%LKJkllJKKL%nk%jkjJj%jJjnm%K%jJJk%KJjkK%l%LK%JKjkJLLJjJ%nnkJ%JJ%JKJJK%ll
28164f%MJkJjk%jklj%JJJLj%lkKjj%Jjjkkk%MLK%j%kkJLJkKMK%LjkKjljlk%JMK%k%KJJjjJJjmJ
28092gKKK%JKjjJ%Jjmlj%JLJjm%K%%j%%%KNLjj%KJll%MJkk%%k%MLKjkjkKK%l%Kl%LKJjllJK%jj
28021Ak%JKKJjkk%%%%JKJJKKk%JljLjkmkJJj%KKjjk%%l%LKJJj%KJkkJkmj%KL%JK%%j%L%l%ljLJ
27949BjJLLJKKKkmJL%%K%J%JJkjkk%j%K%%JjjJKKj%J%JJJkkJKmJJJJ%L%kJLJj%%LKk%J%LJ%LKJ
27877C7JJJlj%%%jKkk%JJJK%jKLK%%JJjjkmmk%JJ%mk%K%n%KjjKK%jllkjjjjJJJJjkKJll%KJJjK
27807A9JmlJKK%%JKKjlm%%%L%l%%j%JJJjj%ljK%JKjJKkj%JJljKK%J%JJ%j%Jklk%KJ%J%klkjKKJ
27736A4%jkj%%KL%kJLJJ%j%%j%JJJkkkk%JKLJj%Jjjj%%kjK%%JJjj%KKJj%jmjjj%klJJLJjj%j%J
27665A0%%JJJjkkj%JK%jJKJlljjJjkJKkkklLL%j%jj%KKJ%Jjjjk%KKJjjjj%KL%j%%%j%k%%kL%k%
27595B%kj%jLJ%j%JJ%jkKKjj%JJ%j%jJ%klk%K%%%%KJjjKL%JJJ%k%K%%Jj%LKJkkkj%J%%Jj%JJ%J
27523A0JJjjK%%%%JJKL%kj%j%%JJJ%k%%kKK%%%%klkJjk%jk%JJJ%J%mkJK%jJjjKJK%%JjJJKJj%%
27453A4kl%JKK%%JKJjklkkJJL%kjjj%kjjJJljK%jk%jj%kj%%%j%J%kj%%%%%KJJ%ljkkjKK%jkljJ
27382a4JL%jkkJJjjJK%l%%klj%jkllljjnmklkjjlljjjkjjljjJ%jLKjkjJJLMLLLLKLKKKLKJLLMK
27311b0JKJKJJ%KLKJJj%jjJJKK%jJ%%%%%kjjjJkJKKJ%J%KJjj%Jj%%%%%J%KjjJ%%j%jk%j%%%Kjj
27241aJJ%jjkkkj%JkjKJJJjjJ%kk%KJ%JJJKK%%%J%jk%JJ%J%%jj%JJjj%J%%J%JJjJ%kJ%jj%K%%K
27169D%jjjJKJjjkjK%jkJJJ%jJjjk%J%KJJ%km%%JJJjJ%%KKJJ%Jjj%J%%%%klKKJj%JJJ%j%JKJ%k
27098IkJ%%kk%%KK%%jjjJjk%kj%Jj%J%k%%%JJJKJ%j%%kj%%j%Kjjj%%%%%J%JJjj%%J%%j%j%J%%J
27026AJjj%JJ%J%JJ%%JKJ%%J%%JK%jjj%jj%KJ%%Jjj%JJJjj%JjjJJJK%jkjJJj%JJjk%JKJ%%%%%k
26954A3kk%JK%J%%%JJ%L%J%%JJKjl%jj%%%%%%%kkjJJ%j%%JJjjk%jjjkjjJjjjjjJJjj%j%%%k%jj
26884eJJ%%%%%jJ%%%JjjJ%j%J%k%%%%%%%%%KJ%J%J%jk%kjJJJ%jk%%kjj%%JJ%J%%jj%J%J%%j%%J
26812gJ%J%j%%jjk%%Jj%%j%jKK%jjj%JJjj%jJJKJ%J%%%%J%KJJjjjJjjJJJ%jjj%j%JJ%%%%%%%Jj
26740d%JK%jjjkjJJJJJ%jJJJ%JKKjkJK%%k%JJ%%j%%%JJJj%jJJ%j%%%%j%Kjj%%%KJJ%jj%jkjJ%%
26669DJ%%%%J%%%%J%j%J%J%J%%j%JJJ%j%%%jJJJJ%jjJJjjkj%J%%%%%%jj%jjjJjJj%j%%j%%jJj%
26597A%j%jJ%j%%J%%%%%%k%%%j%JJ%j%JJ%%%%%j%j%%j%j%%J%J%KJJjjjj%%J%j%%Jkj%%%%%j%%%
26526ejJJ%%%J%%J%JJ%%%%%%%%%%jJ%Jj%%J%%%Jj%%j%%%%%jJ%%%j%%%%%j%Jj%%%jj%%%%%J%%%j
26454dJ%%%%%J%%JjJ%%J%%j%j%J%%J%%J%%%%%J%jJ%j%%%%%%%%j%j%JJJjj%j%j%jJJ%j%j%J%%J%
26382a%%%j%%%J%%jj%JJ%%%J%%%jj%%J%%%%%%%%jJJ%%j%j%%%%%j%j%%%%jj%J%%j%%JJJ%%%%%J%
26311bJ%%%J%%%%j%%j%j%%%%%%%%%%%jj%J%J%%J%%%Jj%%J%%%%%%%%%%%%j%%%%%%j%%%%%%%j%%J
26239c%%j%%%J%J%%%j%%J%%%%%%%%%%%jJJ%%%%%%%J%j%J%%J%%%%%%%%%%%%%%%%%%%%Jj%%%%%%%
26168A%%%%jJ%J%%j%%%%%%%%J%%J%%%%%%%j%%J%%j%j%%JjJ%j%J%jJ%%%j%%%%%%%%%%j%J%%%j%%
26096@%jJ%%%%j%j%%%%%%%jJ%%%%%%%%%J%%%%%%%%%%%%%%%%%J%%%J%j%J%jJ%%%%J%%%%jJ%%%j%
26024A%%%%%J%%%j%J%%j%%J%%%%%%%%J%%%%%%%J%%%%J%%%%%%%%jJ%%%%%J%%j%J%jJ%%%%%%%J%%
25953G%J%%%%%%%j%j%%%%%%%%%%%%%%%%%%J%%%%J%jJj%%%%%%%%%%%%%%j%%%%%%%%%%J%%%%%%%J
25881H%%%%%%j%%%j%%%%%%J%j%%J%j%%%%%%J%%%%%%%J%%%%%%J%%%Jj%%%%%%%%j%J%%%%%%%%%%%
25810I%%J%%%%jJ%%%%J%%%%%%%%%%%%%%J%%%J%%%%%%%%%%j%%%%%j%jjj%jjjj%jj%j%%j%j%%%%%
25738aJ%%%%J%%%J%%%J%%%%J%%%%%%%%%%%%%%%J%%%%%J%%%%%%%%%%%jJ%%%%%J%%%%%%%%%%%%%%
25666G%%%%%%%%j%%%%%%%j%%%%%%%%%%%%%%%%%%%%%%%%%%%%%%%%%%%%%%%%%%j%%%%%j%%%%%%j%
25595B%%%%%j%%%%%%%%%%%j%%%%%%%%%j%%%%%%%j%%%%%j%%%%%%%j%%j%%j%%%j%%%%%j%%%%j%%%
25523i%%%%%%%%%%%j%%%%%%j%%j%%j%%j%%j%%%%%j%%j%%j%%%j%%%%j%%j%%%j%%j%%%j%%j%%j%%
25452b6j%%j%%j%%j%%j%%j%%j%%j%%j%%%j%%j%j%j%%j%j%j%j%j%%j%j%j%j%j%j%j%jj%j%jj%jj
25381e8jjj%jjj%jjjjj%jjjjjjjjjjjjjjjjjkjjjjkjjkjjkjjkjkjkjkjkjkjkkjkkjkkkjkkkkkk
25310a51kjkkkkkkkkkkkkkklkkkklkklkklkkkklkkkkjkkkkkklkkklkllmlnmoopprj0j1j3j3j5
25247c75j6j6j8j7j8j8j8j6j2qm%MQJ1J2J1O%rj6k1k2k1j8j5j2j1rqppoonmlkjj%JJJKKKKLLKL
25196f66MLMMMNOOPPQQQRQQQRQQQRJ0RJ0J1J1J1J2J3J2J4J4J4J4J5J6J5J6J6J6J6J7J6J7J7J7
25151a68J8J7J8J8J8J8J8J9J8J9J8J9J9J8J9J8J9J8J8J8J7J8J7J7J7J7J6J7J6J6J5J6J5J4J5J4
25116D54J4J3J4J2J3J2J2J1J1J1J0RRRQRPQPPPOOOONONMNNMMMLLKLKJKJKJJJJJ%J%%%j%jkjjkj
25057G49kjkjjkjkkjkkkkkkkkkkjkkkjkjkkkjkkkkkkkkklkklklkkklkkklkkklkkklkkklkkkkkk
24987F06kjkkkkkkkkklkkkkkkkjkkkkkkkkkkkkkjkkjkkkkjkkkjkkjjkkjkjkkjkkkjkkkjkjkkkj
24918D76kkkjkjkjkjkjjkjjkjjkjjkjjjjjjkjjkjjjjjkjjjjjjjjjkjjjjjjjjjjjjjjjjjjjjkjj
24848C88jjjjjjjjjjjj%jjjjjjjjjjjj%jjjjjjjj%jjjjjjjj%jjjjj%jjj%jj%jjj%jjjjj%jjj%j
24778C26j%jj%jj%jjjjjj%jjjjj%jjj%jjjjj%jjjjjj%jjjjj%jjj%jjj%jjj%jjj%jj%j%jj%jj%j
24709B71jj%j%j%j%%%%%%%%%%%%%%%%%j%%%%%%%j%j%j%jj%jjj%j%jj%%j%jjj%%jj%j%j%j%j%jj
24639B42%j%%j%j%jj%j%%j%%%j%j%j%j%j%%j%j%%jj%jj%j%jj%j%j%jj%j%j%%j%j%%%J%J%J%J%%
24569B17%JJ%J%%JJJ%%%%%%%%j%%%%%%J%JJJ%JJJJJKJJJJKKJJKJKJ%%%%%%jjj%j%j%%j%jj%jjj
24500B38jj%j%j%%%%J%%%%%j%jjjk%jjjjjjjjkjkjjjjkjjkjjjjjjk%j%jjj%jj%jjj%%j%j%j%jj
24430A84%%jj%jj%%%%%%%%%j%%jj%%j%j%%%j%jjjjj%%j%j%%j%%%%j%%%j%%%j%j%%%j%%j%%%j%j
24360A58%%%%%%j%%%%%jJ%%%j%%%%%%%%%%%%j%j%%j%j%%%%j%%%%j%J%j%%j%j%J%j%J%%%%%jj%%
24291A47%j%%j%%j%%%J%%j%%J%j%j%%%%%j%%%%%%J%%%j%%%%%j%j%%jjj%Jj%jjj%%%j%%%%j%%j%
24221A31%%%%%j%j%jj%%%%%J%jj%%%%j%J%%%j%%%Jj%jJ%j%%%%%%j%%j%%%%J%jj%%jjj%jjjj%j%
24151A13J%%%%%%%%%%%j%J%Jj%%%%%%%j%j%%j%%jj%%j%%%%%J%J%%%J%j%%J%%%j%%%J%%%jjj%%%
24082A08%%%%jj%j%%%%j%%%%%j%%%%j%%%%j%%J%%%%%J%%%j%j%%%%j%%JJ%%%Jjjj%%Jj%%%%j%Jj
24012I9%%j%%%j%%j%%J%j%j%%jjj%%j%JJJ%j%%%%j%J%%j%%j%%%jJJjj%%J%j%%%%j%%%%%j%%J%j
23941H8%j%J%%J%%J%j%j%jjj%%k%%j%j%%%%%%%%%%%%%%J%%%J%j%%Jj%%%j%%%%J%jJj%%%%j%%%J
23871H1%%jk%%%jjJ%%%j%%%J%%J%J%%%%JJjj%JJJJ%%%J%J%JJ%%JJ%%%%%jjj%j%%j%jjj%j%jj%%
23800G8%J%%jjJJJ%%j%J%%jj%%J%K%%%k%j%%J%%%%%jk%jJ%%j%j%jKJjj%j%%j%%%%%j%%jJJ%j%J
23729G2j%jk%JJ%%j%%%J%%%k%J%j%jj%%j%%jJJjkj%%%Jjj%%%j%KJ%%jj%jkjjj%j%%J%jjj%%JJ%
23659E4%%j%j%%Jjjj%%j%%%JJ%j%%%jjJ%%jjj%%j%%%%%JJJ%j%j%%j%JJ%J%JJ%%%%j%k%%%J%%%%
23588D8jj%%kkk%%Jjjj%%J%%%%jJjj%KL%K%%J%jJJ%J%KJ%%JK%JJ%L%jjJ%%%%jj%%j%j%%J%%%%j
23518E3%%KK%jJJ%jj%%jJJ%jj%%%%%jj%%Jjjj%Jj%%JJJ%jj%%%jJ%%J%%%%JJj%JjjjJJjk%J%%%%
23447E2jk%%j%JjlkjJ%%J%j%%%kJ%jj%%J%jjjjjjK%j%Jjkk%JKjj%JJ%j%%jjJJJ%J%j%%%jj%jJ%
23376C3j%KJ%%j%JJ%jJJK%j%%jjjkJ%%%Jkjjj%kjJKJjjkkj%JJJj%%J%%jj%%%%%Jj%j%K%%KJ%j%
23306B8%j%JjjJJ%jkl%JJ%J%j%%%J%j%k%j%Lj%jjjJj%jjlljjJJK%kkjJ%jjjk%J%JJJKjk%%jj%J
23235GJ%%%jjJJjJLKj%kjj%JKJ%JK%%jJjkJJJ%%JJ%jJJ%%k%jKK%%%J%jjJ%%%J%%%%j%j%j%Jjl%
23163A4%Kj%Jk%%k%jkj%jljjjkjjkmmnk%nollkj%llklkkk%kjj%%J%KK%kJJKMLJJ%%JJKjjJJJjK
23093c9KjKL%jJKJjJJj%j%JK%j%%J%jj%j%j%JJJ%%%k%%LJkjJKLK%%%JJJK%%kkjKJj%JMK%%j%J%
23022a3JKKJ%%%%J%L%kkjJ%%%jjjj%%JJ%jjj%LJkljJK%jlj%LJJJj%%jJ%JJ%%J%KJj%%jjJKjjK%
22952e%%%JjjkjKJJJ%kj%j%%J%jlk%%JKJJJK%jJMLLNNRJ0QRJ1J3J6J7K0K2K5K8L1K9K5K3J8J1P
22894C47Jlrj5j8k1k6k7k7k5k2j8j4j2j3j1j2qnmpnnmkljjmmlkJJkmljkjkljjJKKLJMNMMOQJ0
22840D9J2J1J2J8K2K1K3K6L0L3L3L2K8K4J7J4J2Nkmj0j3j3j1rmjOJ3J7J7J7J6J4QLknj0j7k4k8
22800C80l4l6l3k9k6k4j9j8j6j1j1j1j0rpmmlmopnnkjllj%k%%kmj%jj%jk%KLOOOONQJ4J6J4J8
22747A28J8J7K2K4K9L4L4L1K7K4K1J2Mklrk1k7k9k9l0l1k7k5k3j6j4j4j2rrppokmmmnmmokJj%j
22702C9lll%JjkjmlljjjkkK%J%jJlkJ%kmmjJJ%jKjkJ%%jJKkkjkkkJKK%%JklMKJ%llJKJjjll%KK
22631hMKj%JJL%%%ljJKLKJJKMjkJ%%%jj%jkjJ%%jKkkJjj%KJ%MKJJlk%%lmJKmj%kJLj%jnnk%J%j
22560a2JKKj%%J%llJL%kJKK%jjKjpjL%jk%Jkj%kJ%k%j%KjljjKLJJj%KjjjkjjJlkjllljLKkkj%j
22489d0jKK%lkJJKLKJKK%kkkJMkm%K%JKj%kjklK%%LJk%%jJ%jj%kkkmJJk%jKJkk%JJKKJkkJJljJ
22418d7KKM%%%JJkljLKkk%%%%KKjjkjMLJKOPOMLLNOLMM%jjkmmnolllnnjJKkmJ%%jjJjok%jLLlj
22348c6KLJ%kjk%JKLL%jMQPMMONMNPJmj%nok%k%J%jKKNOOM%%LK%knnlpooooplklkklnolJJkkk%
22277d8%kj%lj%kjjKNLKKJjJKLLKKMPQQJ0PNNKL%lkqrmnrrnjm%Jkj%lkj%jjlKLl%lnJL%kKKmmm
22207e7kkKL%%JK%mmJLk%JJmkK%%jjKJ%%jj%%K%kKJLMjlkj%JJKj%L%LMJllKLj%k%J%Jjlk%Kkn%
22137e8Lkkkk%kjJ%jLKmjLJk%jjmlkjKJ%%j%LM%%Ljj%j%J%l%K%%%lllj%%%Jknl%%JklKK%kK%lj
22066i0lkjJKJLJ%jKMLjppJM%KJJkmljjJ%j%Mjj%JKjJK%kjjlllj%%KjlkjjKOJkmmJJj%JjkKL%%
21996a07%%%MMjJJjLLMMKLOLKkljJ%JLKK%Jkm%LM%J%JL%jmlLJKJlkK%k%jkkkkJLkkJK%mkjjjLK
21926g5jJLMkjKJLlnkkKJkjjjl%KkMM%kk%%MMKKKjm%OKklLLjKKKJj%J%mjkplJlJ%J%mkmkjKKlj
21855h4%JjnJKKNNKKOKlkKKjkJ%jjnkJjjLllKKJkmj%LNKjJ%kkojPL%MKjKQNLMNJ0QKMMJ0J4J2R
21788C4J2J0LJ0RKPLjMJ1J5J7J5K1K7L1L9N0N6O5Q3J04J24J40J68K05K44K90L32L79M31M74N10
21756C924N45N90O46P08P83Q77R82J095J184J219J218J169J046Q22N06J66j69n10q31j075j218
21735A3677j271j255j184j073r51q22p06o04n17m39l62k95k39j91j51j13p9n0j9J3L3M2M2K6O
21711C518j4k1j6MM7R9J56K21K82L45M18M89N61O43P30Q22R17J002J080J171J265J336J341
21689A6396J276J154R37N94J94k08n76q41r60r41q19o25l89j51P5K99N26P53R70J122J162J107
21668B1055R87P60L69r9n19q90j237j515j660j674j596j480j345j190j032q85p63o73n87n00
21648E526m28l69l23k86k48k18j98j78j57j40j26j07q4o4m4j9J0M2P9J20J72K20K73L31L86M47
21623D617N11N78O48P19Q02Q96J011J144J289J429J528J544J460J307J039O00P3m07q34j219
21604A8735j498j626j623j546j422j267j114r68q34p20o23n33m51l84l27k90k57k31k08j88j76
21583B449j60j45j35j25j17j09r6q9q4p6p3o7o4o0n3m6m3m4m1m0l9l3l3l0l1k9k8k6k6k7k3k3
21552D34j7j8j9j5j0opj5j4pkoj1roooooom%nqomkknoljnom%ll%jkloprlmnJKjlqoj%Jjkkk%Jl
21490A11onl%%nl%j%KKmlmojKJjJ%kjj%Jjmll%JJJLN%klkJjjJLjljjjlkmnmjJNLNklkjNJl%jmm
21421D4LJml%J%kllJjnjL%JlnjK%jMJJJmk%KN%kLLklnnokL%LjnkjKJM%jJLLmkjk%%JJll%lJNLL
21350A9jlonJOP%jj%LMjnj%JjLKlLKljkL%lj%JLjm%jjMML%lnnJMMN%LJl%mlLjJKK%no%%nn%LKL
21280A3%lKJJML%%%kKMMOMKmnolK%kjJMJJkjLJ%KL%klJLnn%JkJLmonnj%ljMNlkKJkJJ%%lom%%M
21209@MLNKnnnm%%JL%%l%%JOKnkjlJLJ%JjMPkpjML%lKK%KLjjjkomMLLjljn%L%lkJlJKj%jL%jJK
21137@LnoJKJjlJNJp%LkMLKJ%J%llojNMjll%LJkJJk%KNML%jLLMMLOJ0J1QJ0J1POJ0RMLLknnj0r
21072I2ooj0plmllklkqrrolkMlrkLMj%JJLJklKONMJJLLLMOOPJ0J5J4PLRQONk%lokmpk%jLN%MPN
21005A28MOONLKlqrj4j0nqj0j2pnqomjnplllmLkpKMMOLlpqllJPMMN%k%NOQRRNPOMJ1J3RJ1RMKl
20942A42pj5j2oj0j1j1oj0rmkkollmkoorlJJnpKjjj%JkJKMKkKjl%NL%knkjkkK%%K%NJkJjjJ%J%
20878iJJjmkKJkoj1mQLlJJKL%mjJJjNKljMNKJKjjKjLMklml%NL%LjKJppj%jjJllmJMK%lmKLjnnj
20807c2kJLLMM%lk%jK%kjkmjkmMJ0MNL%JLkJPMlnlKKjkjkkk%JkjLjnlLN%%%Jmk%KNK%kkJmljj%
20738b4mJMJJ%K%%%lknkjKPNK%kkjlkKMJlkjLJlk%kkPJmmLPjjJJJlmJLJJ%lkKJLPkmK%kkKMNML
20667bMJnojJ%j%MLJkmkKKlJO%lJkomljNNKKPOoom%JkjmkJKLjoom%jJKKMKlkm%QLmmppJMOMJLk
20595b0pl%KKJmnJJLPkqm%MOMLKMM%JjlK%jKLKmrpmjMK%%LLNMn%P%lnkJmjJ%K%JM%%KJjjkjkJ%
20525a5kkj%LRO%%mkljRPKmpJMNJmj%JK%nlJMK%%JkJJkKJj%JjlJNMK%lkLNKqj1oMOKMKkkJKmlm
20455akMMkrjM%JkmmjkJRLjmjM%%%JjkKKKKLjnkn%KlJNOLnoJJjJ%K%jKKKJjn%KJjllJOKjMLkJ%
20384IpnjLKJlojKK%klkljK%KKKJnlMOM%n%J%LKllllJKLKmoKPkomojj%%LNmjMMkpjkPQnomjLOO
20312a1MKMLmom%KLLjjmk%JMKljMjn%K%KMKkjjj%JLkoJONKJllllMLjkJJMLj%kl%kkMMjjLKl%kk
20241@KKLJJKJ%LllMLlnkjKKJKk%mkKjmmKKLJmk%L%%M%jJlnjKNNKko%JKk%kmLljKMKnKMJmkJ%M
20170FKkkLKokL%jLM%j%lp%NKnkJK%nMMojNKKlrjMlpm%KJ%OMjK%%kKJlLJlmkLk%ON%lj%Kkkj%L
20098aJllj%KJj%LQMk%kjjlJkoLNJ%jK%l%k%JmMN%JJKjlJ%j%%kJNJllkKLLLkjkomjKOPmnjlk%K
20027aMjlkJjo%NNPMkmn%Ljm%LM%l%jkPNJkmOLkJ%KkqlKJMmrLQJjolkJON%JjpkjlJ%%KmnokMLJ
19955iJKJ%lJKJJJjnKLnmj%LKlnLKknjPMJj%kkKKPkoKklln%PQj%J%jjKJ%KJJJPMmlMRKqqkKK%j
19883Ejl%LL%mjNKmkkKLJ%kljLmJNkjjj%JKNMJk%kqmJJLN%KKlMKn%Jl%KkKJ%knL%jMlm%KJjlmO
19812DOJJkkLlplMNjk%jMOJklJMJLLKKJjmmnJKljJNJmlKLJLklJMKqmjJQO%nkjkpo%JRJ2N%mlkl
19741A6JJ%J%nnJJm%L%J%MjlMommkRN%kkljKkjkJOMklK%jJ%%LKKKjl%KLJklmn%L%kj%lLO%k%mm
19671CLKmlQPjplPJkKm%NJpnMQMp%%mlpqmLL%NKjKJNKKJmJkMMn%jn%L%klmn%RNjlj0kQNKjk%jq
19600grKNLknJomOK%NJjNKMLKKlJL%J%oojKMKjkkkjJJMkmJmlJJJkmLKJJnlLKjJ%lLMlKO%%lpkj
19528a1lJMKJjjKLKKKkok%NQMjmnjJjNLkkmKlkKj%jKMMKLjm%jjKLLmqnKL%%jNNmpqkQLmjJJMLn
19458bjLkqlMMOJ%JllkmjNLKKkK%llLNKjqpMJmjMLkomjKKKLNMK%ljkokkl%OOJomj%kJLLKjnmMK
19386a0mokM%%JKOM%jnmLMJll%jKJJMKkpkJmklk%kjNPJllNQKpj1lKkJjlK%K%jLOMkjjLKlkmJKK
19316a7KKlnLJLJkjjkMNLLJ%L%%LMLlpjJmjNOLLjmomJJNQLlq%KlmlJKkpj%k%Kj%kolJMNLkjLlk
19246a5KJJONkjLN%kNMLjlNjmkolj%ONjj0njjQJompkKJJKNQjl%knLPKjllmnMOjl%MON%%LloLOL
19176A3L%kmk%jjnl%%jJJjkJJkk%JMJjmlLLj%%ljOKjmlkjjK%JL%JklJ%jLNJKKlkNKlmkMPKlmLL
19105IrlPMJKjllmnjKjLL%N%kLj%jopkK%ROmlJjnljkKMjMNl%%lk%%%JljKKNJjKmolk%JKLKKj%%
19034cklp%O%nn%PLmkMPjpljjJOMmlLNKj%jj%o%RKkkkJMMjonmjOLkKKkLNLlpnLLlKMJKj%jl%mk
18962iJKJJ%m%Jl%K%klKJNMjorlNL%LMJKKJ%mkLkj%nplK%jOLJLN%%KJknljKJnlMlnKMLOMjj%Jj
18891ajjkMN%kLMK%qrjKKNKjL%mmlKlmKOOJKRJnmnjMPKlmmJL%jKN%mllk%jlLNLnl%jMjlKNOJmJ
18819A1OLjmjkmKMJmoo%QLjj%MN%%k%Npp%jJLNMJlk%KP%nnjKkjKKnmK%JOQkklmMMJ%kmlNL%%JJ
18748B2jklKPKjk%Jjjjll%kkORkkLJkjkKMONjk%JPLKKJNRJ3J0RJ0J2K0K4K9K9L0M1M9N7N7O2O7
18692E85O8P8R2J02J20J35J53J71J88J80J01qq9j54j98k14j94j61j28j00r1q7q1p0n7m6l2k4k1
18664B18j6j7j4qorj0j2j1pmlmqpmmljJ%lMPLQOmkNQNMPPPmj0jnomnkmj0j2rnorm%Jkj%njKJKj
18603C3KJ0PJLQPONNMMMJkMPlj1poqmjjKkoKNNL%KLkmKjkjoljplKmpqkKKMJkKKJNMPQM%jOJ0J1
18537A01J0QPORROK%l%lnlmqqqrqljpj1mkj0rk%mmojPKJkppljMROJmlJJljMJ%LLK%QJ0LlOLkNQ
18471H7QNkK%KKpqonkjJmj0p%K%%L%rj0jJ%jKkkjpjKKlkMMLk%jlMjk%jn%PK%%%%jjj%JNKkKJlJ
18402D1LjNMmkNOjkkjJNKkJK%kjkl%ORKkKPPONLOOPPJ0J9K2K2K5K4K2K7L3L3M3N3N2N1N8O0N5
18349G32N2N1L4J5kj9l5n0o0o4o0o0n6m1l2l0k7j8j7oOOJ3J6J1J8L2L8L8M0M0N1N6N4N1M8M1K5
18312H91Oj4k9m2n2o2o9o5n9n4m6l9m0m2l0k2j7j1j0j3j4ropmqpJjkmnlpoNRKjjk%KLjJLkMNOR
18262A41MQJ1J5J4J3J7K1K3K4L4L8L9M2M8N2O1P1O7O9Q1Q7Q6Q3P9O7M8K0qk9n1p2q5r0r2q8q1
18226G67p0n8n2m1k5j6j1nJJ3K0K9L6L5L8M7N7O5P0P4Q2P9O5N3M0K0rl4n0o7q1r0q9q5p6o4o0
18190F08n1m2l6k5j6j1j2qoplmkoj1j2j5j6j5j8j9j3j2j2rj3j1lkomlkJj%lJNJjLOQRJjMOMnJ
18140B22J0J2jp%jjMMOLjOPJJLJOJ2J2OMOPLJMjmkkknlKk%NPJ1QRJ2J5J5J3J4J6K1K6K6K8L4M5
18087F16M7N8P8R3J02J20J35J55J81K04K28K53K76L08L39L74M15M53M95N48N93O15O25O22N72
18062H505M68L27J86M3j20k90m30n23n90o34o45o33n92n35m80m16l53l12k71k25j87j60j41j17
18039A875r7q7p2o0m9l5k2k3j6jJ0K2L3M7O5Q4J01J27J54J85K22K61L00L39L87M44M96N53O20
18011E863O89P60Q43R17R74J014J035J024R77R00Q05O84N30L45J22j21l40n32p00q33r15r57
17990A3084r86j000r85r41q69p74o66n55m46l36k42j61q3oP0J41K11K75L43M07M72N50O29P11
17967H843Q00Q70R17R46R44Q78P31N45L59J62n1k49m11n32o20o71o87o57n84m77l43k08p1O4
17943A0498J69K28K46K33K00J44N8l8j40k67m08n15n89o39o62o48o05n51m81m00l14k23j39n3
17920E104L2J12J91K74L66M55N44O38P35Q39R50J060J157J244J308J345J357J335J285J206
17901B1537J096R56P83N81L46M7l04o58r82j269j498j624j632j544j409j261j114r89r04q36
17881I322p73p12o40n65m84l97l21k66k16j67j23p1k3J4M2M7K3k8r4j51j90k08k05j77j28q0l3
17855C396J5N9J05J57K13K65L12L63M20M78N41O15O86P47P87P94P78P26O23M60K62Q5q6k69m41
17831A2091n69o56p25p75p94p74p26o62n93n40m99m57m16l83l49l13k76k42k13j87j67j51j35
17809A489j20j06r1p6o9o8o0n0m7m3l7l8l2k9l0k1j9k0k3l4l3k8k7k4k7k4k4k2j5j7j5j1j5j4
17776A80j4nlqon%kpkjllk%KjOJ1MMJ4J5J4K0K1J4J3K2K9L2L8M3M7N9O5P1P8P8P4N8L0RL%%RJ8
17730A019K6M3N7O0N9M4L3K5J3Lj3l0m2n1n6n7n3m4l0j5lLMok4m3n9o8p2o7n8n5m7l9l6l2l2l1
17693C26k4j3j2k1j2lonj0j2pkjokkjl%LkjKMJl%NQPLLOMLJ0QONQJ5J3J1RJ0J7J9K2K4L2L9L8
17643E13M5N1N9O9P4Q7J04J23J46J77K17K52K86L34L78M11M32M54M83N12N49O06O80P69Q70R80
17617I661J096J200J247J193J033P48L55n5m33p71j038j200j241j205j128j026r06p82o67n62
17598E519m77m14l62l20k86k65k46k19j92j74j55j33j13r5q1p3n9m0k7j6lJ2K7M5P1R9J36J76
17571B335K27K81L35M00M78N60O42P23Q15R08J002J103J214J345J500J675J871K069K230K288
17552B4001K169J849J381Q03J18n95j207j660j957k138k196k135k004j832j646j452j251j066
17534I182r00p48o22n07m08l19k27j45q2l0L4R7J44J88K34K91L50M20N02N90O79P55P86P37N88
17510A1589L48R0j38l41m89n49n25m47l50k42j22KJ24K44L66M93O18P30Q24Q78Q77Q01O42M30
17487A5853J84q4l47n75p79r46j051j087j064j003r06p89o71n58m56l66k83k04j31n9lL9P6J19
17464D909J76K34L01L72M35N04N75O53P47Q57R88J133J275J382J392J251R92O43J89k98p20
17443A7990j032j240j358j389j338j246j140j017q91p69o59n59m74l90l18k57k08j80j57j38
17424C230j30j31j35j30j16j01p9o3n7n7o6p6p9q0p6n8l8j5RL1N8Q9J13J42J73K03K30K58K84
17396C333L16L58M05M58N09N46N62N47M91L91K81J65K5j17k47l69m78n49n74n64n28m72m04l50
17373C735l19l01k83k65k44k21k03j79j55j33j17j09r8q9p8o4n3m9m5m0l6k9k8k6k2j5j0j4j2
17344D98j1j8j7k0k1j8k0k1k1j4j4k1j9j5j6j9j7j5j0mrj1prrnlmklmlkljjkjklLRMKMNNjkLjo
17294A08mk%jnmmpmK%klkJNKkmnkkkMjoopljkkonKOOJ%JKJJLLPJ0jlMPJ1PNMLMNOJ%Kmooqokk
17227I2j0j1qmmnl%knknmknmlkjkl%KL%okjJJ%KJNlmJkMKLPMjlKjMPNKmJOKj%mpJMknklplnp%M
17159HknLJ%%nnjKJLMLknk%klJLJnkJKjnkMKlj%KJKK%kkmJLJKJkjJ%k%NjolLLlm%%%KKJKklJLM
17087ejmKK%%LKLJknlLKJL%j%ML%%opkm%%NJ1QNJmj%llkLjm%jjlmNNlnmKJKKJKKj%KkkMmrmNOK
17016BjKLjklkJMLkk%KJ%lnm%nkKMNKMknLkn%ONMKllLJLMkjKLjJMklJMMMNLLOMNONMMLMjjlrrn
16945E2orrm%kllkJkol%ON%K%l%Jkj%J%KLJjjk%%lJNOMJKNLLNOMOORJ3J3J3J1OLJkljlj0j2rj1
16881H7j2pnnpokkllmnk%JJkj%%KNN%KNON%MRPLJjoj1pnmK%jJKJjJKMPQMKKjJ%lqroo%Jlmollp
16812B0kJKM%kLMjjJjjLJMQLMJ1J2NKMNOMJlopqqljqj0nkjklJknlk%olKk%L%%KjkJKj%jlooJL%
16745EJKQM%K%mlNOKMLLKnjMNKjjjjnollJK%kjJ%mlkjM%oljnkKL%kjJK%j%lokON%JkjNKjjpmOQ
16673A2P%mloj%j%jJjJMLlrnMOLjk%%JJkljkJLLKkkj%kJMKJjJJkk%JJkJLLJljKLJmmJ%K%mpoLJ
16602c%K%k%MMkomkJLLKKKmm%LL%kkjjKKKLJkKLKkmjJk%ljK%%jk%Jkk%jjMP%om%MLJ%nlJJ%lmK
16531i%JNKmkOM%lklkNKlJ%%N%n%jk%JJjj%jk%LLjoJLMN%%KJJllk%jJJ%%JKjmjJOJk%%jkJklJL
16459AK%%kkllJ%%MLLMjkJljJjjJMKj%lpmk%jkjMMJKLKJjJmm%MJljllJKKJkkKKmm%%J%kJJKKjl
16388a0j%KKJjJMKjjJKJjjJ%%Jk%kk%jk%jJLJ%%JjLLj%Jkmjj%JkJLKL%kkj%LKJjlKjjKjooKLj%
16317gKMk%N%n%jnjjOOllJ%%KlKKmlJ%JNjjLjmJKnkKJ%kj%LKkJJLN%lkKj%K%lnjPL%LLjkmJO%m
16245Ekj%LJ%%klJJl%NMKJknlNNjokJLMkklkJKNJlj%%ojLJj%N%%JJklJkojKjj%%kjKk%LjJj%KL
16174AlpKjmNMMMJ%lkMKK%%ljLjjjm%NKmj%%K%J%jjmk%J%l%MmmJJ%lKOLLML%kllKKln%%%OLkl%
16102DjmkJL%%LLK%%ljMJmml%kJLMLjl%KjklJLKJJMJ%JJknpmMP%kmk%%MNKk%Mkk%km%%olLOKl%
16031BLLJJKJL%nllJJ%%KLjmJJjKJ%LL%km%kjJkkmnjkLN%%%kLjl%jJ%kolNKmjkjLNJJKLKjlj%k
15959dKNKmjj%L%mlKOLkl%OkmkmLKj%%J%mjl%KKLkj%llJLKkkJL%%JLL%%KJj%JmnjjlJLML%jJ%%
15887CKJJJknm%MLMJll%MK%Kjk%jkJjlmjJK%l%jkJJJ%KLjnkJKJLM%kk%J%KJlk%JMJkjnmKLNL%k
15816EkLklLNkojkkJKKjk%%%kl%%%%jkjLOjlLKK%jlkLJ%K%llj%jJKkjJlJKJ%%MNLllLL%%ml%JK
15744C%k%Lj%Mkl%lmlKK%kmJLjjJJjjkLMnljKNK%mlmlJJJJKNM%JL%%jk%LMklljJ%JMJjKKJN%l%
15673A0jkjlljljJLjLJjkmkLKkkMM%m%%jJ%%K%ljNP%jJkmmJ%lkkMOKjnjKJ%mkLKmjJKKjKKjk%%
15602amK%mj%K%kKJkJLKkkjJj%M%kkpkNMj%%%LjkLJ%kJNM%kKJ%KLkmnjMLJmmk%J%KKjljjjJklM
15530eLklnKNKkKKk%kmLMKmjJ%jlj%ML%jJ%mkL%jJ%%%JJKJlmkkkJKjKNNNkkjklm%%KklNP%okJn
15459a1lMN%kLLlmj%jJ%MLl%j%KJ%jn%Lj%NkjLL%jkKJkmkLJ%LKj%JJkjkjLLjJKLOMMPNQRQPRJ5
15389I0J8K1K4K2K7L1L3L4L8M5N3N9O1O2N6M2K8J0j3m0m8n3n9n9n5n0m1l5l1k8k4j9j6j4rprop
15351A31poojKMLMJ2J2NOPOMPRJ0J0J1J3J1J0QJ1J0ORJ1RNMNJ0J6J8K2K7K5K8L9M3M1M5M3L7L0
15306G59J8J2O%lj3k5l1l9m3m4m3l9l2k8k3k0k2j9j2okj%JK%mnonj1j3j8j8j7j9j1qj1j1j0j0q
15263A68rj2pqnj%%jMJNJ2J9K1J8K3K6K7K9L2L5L9M7N0N7O3O5N4L9K3nl3n0o0o3o1n6n2m5m2l9
15223C08l7k9k3k3j4j3j4j3rnnmpprj0nopokjlmk%%lojJK%jkmjJjjJJonjKNjlk%jj%%jm%Kmk%L
15162A7MLjk%%%%lnkNJj%%j%K%%jJjmJMJKK%onJKkjlmJ%%JKJl%LkkKK%jj%MkonJOK%JKKlllmKN
15091FKmkK%llJjljLN%jKKJjJKkmkLJjjkJJkKN%k%KjKLlnKPLmnLLmnlJJMNJkmm%LJj%L%jjjkjj
15019AkkJLKLJkJK%jjlk%kkjKOJlkjjKJkmlKJkMJ%j%%jJkmkOP%%lkjKJ%LJllKj%Kjkkj%NN%Mkk
14948DKJjlnjLJJJKkJLkkJ%Jjjk%JLJj%JKjlj%JkjL%olKLKMKJMJl%KLlljjj%KJkjJjk%jlkjlkJ
14876fMNKkk%KNjljkkjjMO%llkk%Ljll%LJl%JK%jJKklK%jNJjJk%JJMNKllJJkjNJlnkJjkl%KJ%J
14805@KknKMm%PK%jk%njLJKk%KjpnKMNL%jkl%MJmjjk%K%KM%lk%J%kjJLJj%MLmomJJJMJJ%j%K%k
14733AlKL%%%J%nkLLjmjjjLNJl%LLjmljJJ%%kJ%KKlm%Kkkj%%%%JLjj%lJMLLkmpkOMKj%%%jmnjL
14661iNLLKmmKMMJopLN%jJnmjjJKMN%jLM%kjJlmKKONlmLkoj%KJ%Lkljm%KKJl%JJK%%jlnjLKMkk
14590a%JKjjk%JjjjK%kJjJL%MLljJ%J%mnkjj%%JLLLK%JjjJK%K%jjlollkJL%KM%klJLJMMjjjkjm
14518cl%KjJ%jM%lKKJlnjLJmjMLLLJno%LJ%%jKJjKKklKJjKJKL%LJkj%kmjKkl%kkLPNJKjnKkjLK
14447A1NjokJjlJj%%JKJ%J%k%%JLmnJjjkmj%MMkJPLmj%j%%k%%jJ%jmlJJKLKL%jjJ%mlKM%nkK%K
14376BKjmkPM%kmjK%JJjjJlllJLj%jnkPM%%LNKJlnk%JkpoLNJm%LMK%lkk%J%kJJ%LKjjkkjLJkkJ
14304eKJjlJK%JJJj%LjljJKJlmjK%kkKNKNNllmkKOKnlKL%%%j%LKkmmJLOMk%jkjllj%%%j%j%%KJ
14233AmkJLJj%Jj%%kmk%jJJJJ%kJKKj%KnoLOKjklkjk%%kjKJNL%MJnlkjjk%PJlLLjk%JJ%jjKJKj
14161bn%JJKj%%JkjKjJKnmKNLjjKJLPjolmljjJj%MM%nnjMPO%lJJJk%%njJlkJKJLjLLkklJJLLJk
14090EpJLKLkmkkjKL%%%j%K%MJkJ%JKnmj%%kJLJKJ%%mljkj%M%%lljJOKk%JKLjnlKOLKJkkllmmk
14018a1KLKJK%%%%jkmjJKLM%lklJKljj%MkkLLJj%kJMJ%lmJjKKK%kkllo%OKLNNJmJMJJj%KkmJ%l
13947BKJnKMjKLklmkkJLJjkLjlKKJJKKj%KlnjKKJJ%%KlKMkjjmjkkK%LOJnmJKJklKjnkNNJLKkj%
13876GjkLJK%lJL%%JjkJLK%nl%%k%KLJmlj%KMLJJ%JopmJL%JljLKJjjK%mk%JJJLJJ%k%kJLjjJ%n
13804AJNkm%%JjkJ%%KjJ%jJ%lk%jL%JLlkJ%%jj%JJlkKKkkNQOJnmmoJNMlojOLolKNLKJj%KJllmk
13733bLON%JlqjKJJLM%qo%%jKPPJmmkk%LkkmjNNKJml%MjpkkjNJ%KJ%lkjKJ%k%%lmjJ%%KKlkjkL
13661a1OKl%L%k%JJKJl%%kkLJkJNKmlJJJknkKJmJL%kJJ%Kjn%NKJkj%kKKj%jkLJlmlJNJo%LkJj%
13590a2JjLLjk%KLKKjnkJKJKJljMjnl%jmlMJJKjKmoLQMK%%%LkrnMjlL%%LMMNKlomJJ%JmnLROjl
13520A%JmmJKjJMKJjmmkJjlj%L%LMjjjJLkmkJ%m%M%%kmnKNJ%KMkmokOLJJ%%JLK%lkKOOLln%llK
13448aLMkmJ%jmnJK%KJ%%l%JL%mJ%jjjKNNKjkkm%M%kkkkjNMl%Jmj%kJNMkm%NLJJ%llllm%PO%ln
13377e%%JMkn%%kjJKMKknmKMkoJMLK%lkjlLK%KKMJkK%kjJ%mklMQM%jkJJJ%kjKJjnJL%jkjJ%%LM
13305HK%lm%LJjnlNP%k%jlkkJLJkkkl%jKKk%LLJJjmk%NMKjolOJjONmljm%NK%kljJMJnjKjLJnkl
13233@kLLLK%kkjjnlKMKK%jkKKmkKKjlJKLJjMMjlNNmnjj%LJknlkjLKk%JJJOMjJloj%%KNKlkPJk
13162A6LLkqo%j%LJJlkKJmljkj%jMMJ%knjMKjJMjn%%jLMJ%%lkK%%jJkjKJJJLJllnk%LJKLKjmj%
13091CMKm%%JJl%jKMN%noJMKK%kmkLNM%mnKOLj%KML%%LOOKJnqmnkJlmkKLJJLLjJklKjJ%jlqp%K
13019ELK%KLLK%knplJOMNM%JKKKMLMMNOKOJ%L%jkJjJO%nlllLM%ljlmlojjlkkKjnnjJNLj%KLK%l
12948C8mmjMMPM%KLNQJ0J%ON%JKjmlKMOP%mmJJknkNLNJnnjJjKKnpoklqlJjnnmJMLORJjLMNMOMj
12878I4mKJ2J0MMPQQPORROMQONJ3J6J7K1K0K1K4K2K3K5J4MKmoqkRRRJ3J6K1K3K0K0J7Roj6j9k7
12830E05k5k7k5j8j3nqlJ%Kmmnj2j7k2k0j4j3j6j1j0j0oopl%lJKKQLMPJ1J0OMJ1J1NJ1J8J8J9
12783C52J7J8J6QlnJj%LOJ3J7J8J9K5K9K8K2J2lj4j9l1l1l1k4j5j4rn%MLN%%%rj6j5rj3j4j0nk
12738C18%PJ0J3J8K4K6K4K7K3J8RjopmllLJ1J7K5L0K7K0K5K4J4Lj0k2k9l1l5l2k4j9j2rojJjKJ
12694D65j1j8j7k7k9l2k9j9j3j4j5j3j0rlnnlKjkLMNQJ0NOJ6J9J6J8K0K2K4K7L0K3J3QMkkl%P
12650D73J4J9J9K5K8K8L0L0K0Npj9k7k9k6k6k7k1j5j5j1lMNKnj2j6j8k6l0k6k5k3j5j3j8j5j3r
12611B12j0j2qponllpm%jk%%jlkmpkLJK%k%klLLjKKjklJJk%JJkjKLPMJ%mlLOK%KJLLk%mlPLm%N
12543A58QKkJJ%K%%MMLJJJjjkORKlJM%JKLQLlOOkLMOQLJLOQJ0J3J0QPMLOJ3RJ3J8J4J2J3J5J9
12485D52K4L0L9M7N3N7O6P9R1J05J20J33J50J67J79J93K19K38K65K98L26L60L86L87L66L17K52
12459E399J57M1p2j82k81l52l95m12l97l68l29k81k35k01j76j46j17r7q1o9m7l8m2m3l9l9m1l6
12432A081l3k3j0nonPJ7K2L4M5N4O8Q8J04J17J36J62J92K22K52K78L07L42L83M34M80N30N97
12404E870O64P26P68P74P51P01O31N46M49L22J54m0k28l86n03n58n39m65l65k59j78j41j36j52
12381H406j84k25k80l45m13m66m87m85m61m17l57k95k41j94j51j15p6l6oK2N3P7J03J40J81K24
12356C972K70L14L59M14M74N46O06O45O65O61O29N62M56L44K66K04J49J12Q8P5N3Lp0j45k24
12332A1428l05l62l74l33k56j55l5R5K19L19L79L72K95J84O0o6j80k97m26n52o54p13p32p08
12308G203o35n39m34l34k49j73r7k2M8J18J86K54L16L73M36N02N72O46P22P98Q71R29R51R38
12285A3380Q73P25N12K79L4k16m26n63o32o29n67m63l30j86n4L8R8J32J13N1ro2j06j44j78k09
12260A1461k35k77l51m44n23n88o47o82o78o41n85n15m47l80l13k53j99j43r3m5oK9O6R9J34
12236C744J74K08K55L05L56M14M65N02N19M88M25L48K87K50K25K12J94J71J35J01R3J25K00L06
12213A0502M33N58O42O65O29N20L18O7j96m47o73q58r87j040j032r91r16q20p16o11n19m38l71
12190C719l14k67k28j81j47j27j08r1q6p7o6o0n8o7p3p7p9p7p0n6m1k9j1J0K4L6N0P0R5J18J43
12160A875J64J86K09K29K48K52K25J87J57J34J27J38J63J91K07J67O7n1j55k36k82k82k52k11
12137C457j74j60j82k10k31k41k30k17j99j71j48j29j15j02r1q0o1m9m3l7l1k3k1j2moj3j6j8
12109D43k3k8l4l6l3l0k2j7j9j4rj7j3ljMJrqj0j4j4j7j8j5j4j3j2j3qlnkjlnoojKJjklmjKOKn
12061e1j0n%LOMjJOJkMONOMLKjljlqo%%jml%%%jjll%kkJMKNOlpmlJNLknojMJjL%mJMKKPNLJMPJ
11991b4koolj%Kjlj%JNNkkKMKJLLK%kjjJ%jjjlplj%K%jJjjJjkj%JmmJKjKLLO%jjJKLQkpljJMNK
11920b4%k%jjMNMj%LJJl%lm%JLm%Kkkqn%JJjJKjJLK%MLLMJmlm%OK%Jm%jMOKkK%kPNjlmJMKljMK
11850DJlkKKjnlJLNNkpk%k%jJJJLklkjJ%kkJLMNKj%%jm%LJKLKknljNPK%kjJJ%MJ0PQPNLNML%nk
11779F1kJKmKjn%JK%nok%KJpr%NMJjJNorKLJOKkkKMKj%JLPJkMNMLL%J%m%N%%LLJln%%%jljLMKN
11708H7Kkjkjj%k%mlKmmjmnjNKkkkL%jJMPOK%%LjKLnnLNK%JJ%jkL%%LLOMJjJMjLL%monomkkklk
11638G8ljlkkllJNknjJONMPKk%JJKkKK%KJjllKQPJjLM%KLLjnJMJmrj2n%Jjlll%mlLKK%kljOMLJ
11568H5jLJjKMNL%jKJKJnlJkokJkLJ%MNNKMKjJ%LKLLjjklkln%JpnL%lj%jKMMRRKjjMQQNNRROJM
11498A82Jmlmkjqj0nklJ%llrrkllJkljOKm%Jj%Mkk%lNRNJLJjNMON%OJ1J1J2J0NOJ2J1J0RPRJ2
11438B80J3J1QJ1J3J0J4J2RJ6J7J8K4L0L7M1L9L3L1K3J2Mj5l0l7m5m9m8m1l5l3k8j8j6j3j0rnm
11400B70KQNRQJ3K3K0J7K1K6L0L3L7M5M7M2M3M4L5K2J4%k2l8m3m7n2m6m4m1l7l8l2k4k3j8j2j6
11362B81j4omklqn%jKkmMMNQRJ1PRJ7K1K1K3K1K3L4M0L7M2M6M4L8L0K4J8jk3k8l7m3l6l4l4k6
11319E08k2j9j1j1j1qnLJ0QRJ5J9K0K8L2L6M4N1N2N5O0O6O2O0N7L9J8mk1l3m9o4o8o9p3p4o2n4
11281E94n0m1l7k5j7j6j2pkMOONPJ4K1K1J9K1L0L2L1L4K9K2J7Jj5k2k6k8l3m2m2l9l3k8k4j6j5
11242C44j3qloj3mJ%nmLjklkLPPLJJOONJ0J2K0K1J8J8J9L1L7L2L6L4K6K1ROjk1k8l2l3l6l8l4
11196D50k5j6j2j4j4qmolNJ0J2J3J2J2J6K3K6K6K2J8J9K3K9L6L0K4K3K4J7Rnk3l3l4l7m4m1l9
11158E21l6l3l0k2k3j8j0qmnqj0pnnjkmllJjjJLLLKMPNOOQJ2J0RJ1J3QOJ0J1POKLjmklnplNOJ%
11102D26%%jkjkpmnj1pprmjjKJnn%kmNMKLllKM%JJ1J0jJORJJQOORQOOJOJ2RRPMj%J1J1QJ0J1J1
11041E62J3J0QPJlnmmlmqqoj1j3mKLjjMLJJKOJ2J0OJ1J2J1J3J6K2K2K2L0L5L9M8N9O7P9Q9J00
10995A251J13J30J47J59J78J95K11K32K59K84L07L36L67L80L67L29K71J79N6o6j70k68l46l87
10972D514m02l89l62l27k86k48k13j74j44j25j06q3o4n4m8l5k2j7j3oj%J1J9K2L5N2O7Q4J04
10943A789J22J46J70K01K29K68L08L38L76M18M61N12N69O41P16P94Q76R53R89R69R05P89O05
10921A4144L68J41m7k07l26l78l88l94l89l86m34n20o06o81p36p66p62p20o57n91n23m48l84
10899D310l31k83k38j96j61j32j01p7n5l5rK0L9O3R2J25J59J91K31K74L17L66M17M67N26O01
10873F580O85P74Q66R58J042J095J090J037R51Q25O67N25M22L53L25L30L38L03K26R9j28m26
10852A8937p19r70j174j329j396j361j276j161j029r02p76o60n60m76m08l38k70k21j82j51j14
10832C464q0n4k4KL2O5J00J36J70K06K52L01L51M05M63N35O18O97P82Q61R09R05Q36P46O65N85
10807A3928M99M24L65L28L26L26K92K11R8m2k24m42o57q51j016j124j164j143j070r78q65p41
10785F480o31n31m47l79l18k61k08j55j15q7n0j3QL3P1J02J27J61J96K37K75L23L82M44N07N79
10760F730O52P09P33P00O06N00M24L79L66L76L86L86L83L56K86J86P1l5j06j43j79k45l59n01
10737A2661o28p26p78p65o91n66m29l15k33k01k09k35k55k56k36k00j46r2m7l3o3r9j23j29j13
10713E093q1l4L0R3J45K08K72L33L96M53N00N27N31N20M90M45L79L02K34J83J43J02M2k8q9j27
10688A1062j55k03k73l47m28n17n95o27o12n68m97m25l78l54l45l37l20k86k46k01j45j02o7l4
10664C000NM7Q8J24J63K07K43K82L26L64M11M69N27N90O66P28P61P53O79N48L70J78nj65k86
10640A1073l76m39m83n17n45n76o03o10n93n63n12m56l97l30k72k25j86j56j26r2n8l1rJ1L0M3
10615C002N3N7O6Q9J13J41J82K30K84L39M02M66N27O00O80P63Q54R52J062J179J295J399J449
10593A6184J426J360J257J114R28P29N51L82J78r1l96p19j006j210j326j343j280j173j053r46
10574A3566q49p51o74o34o16o10o05n92n67n26m64l96l35k77k21j75j29p7l0J0N0Q6J19J45J72
10549E620K10K46K75L05L44L98M75N61O59P74Q94J028J171J313J442J540J588J610J641J687
10530B3781J738J734J629J416J119P78M29J43k3q1j33k51l95n42p05q90j073j179j180j122
10511B5193j068j076j148j253j367j471j527j508j421j279j117r68q47p48o49n56m77m05l35
10492E973k67k08j55j10n3ON7J09J67K28K93L65M36N07N79O66P70Q87J012J146J290J427J535
10470A6660J574J510J360J199J079J003R57R11Q53P47N79L91K28J36J19J17R1K6r3k74n27q17
10449B7829j086j305j480j598j656j667j641j587j514j419j298j170j035q96p73o65n69m95m32
10430E543l73l14k63k21j87j50j17r2o1k3J7O3R7J35J77K20K68L16L73M30M91N71O53P41Q27
10406I121Q93R11Q57P39N87M46L30K45K25K57L07L58L88L88L70L25K44J31Oj27k84m57o24p86
10383A4850r44j074j148j162j118j038r35q25p14o12n35m65m06l50l00k58k18j88j57j31j13r7
10362B062q1n8l9j9PK7M0O2R0J17J40J57J81K10K42K78L17L55L90M20M32M43M36L86L14K37J53
10335G299N5l6j04j38j51j47j31j09r4j01j29j84k48l21l89m25m36m34m17l76l35k97k55k20
10312A877j92j68j45j20j04r1q1p4o2n3m3l4k9j8j4j0JQJ7K4L6M2M2N3O8Q2R6J05J20J38J49
10282A620J71J93K12K23K21K14J95J71J40R4L9k6q3j27j67k13k47k57k59k48k30k10j85j63j39
10258I39j17r8q5p6n8m6m4m4l7k6k2k1k4k2k2k1j6j5j5j6j5j2qj0j2nkmljMOPQJ1J5J6K7L0L2
10219A98L5L9M2M7N5O0O3O8O5M6K9J6j0l1m8o4p2p3p0o1n3m3l2l1l3k5j6j0j0j0ploj1j0rrqoq
10181fj1j0rqj2qmrp%Kkmlnnkkmpl%JjnmKJJ%JLKJLQ%ojkKMMRPOOLKKNMLKjln%jjlmlnnppjLKj
10112i8%jkmJNMPKjJkkJkjkokJ%Kklk%MKJNJpoKNjjjkKOONK%K%%NK%kkLLjML%k%QP%%LJMOMK%k
10041c5kJLJLjnqpmqroK%kJjMMl%jnjljKMJKOJmkLPKKMPMKPMkMRJ0PMNOOQOOKJLJJlm%jlnprr
9973Ej0qkmopoKNJlmjKJnnnnL%%NMJjkMNjKNMMNQOLRQONQORJ1J0J3J1J1J2MLP%nk%jprqpj1j5p
9909F1mnpj3j0pprqol%JjnjMkj0qKKJMMJJJjlJRJ1Mj%MKLJ0J1PJ1J0J1J1J0J1J3RNKKNMJJljkn
9850A28mnj0j0pj3j2j2j1m%kprpomnlkjllJ%lnjLLJnpklLQKLQ%KMkLLKOJ0J1LKMQJ0NLNknjJKL
9788G1Kkljmnj0qkklrqlklkJKjmqk%KlrlNLkjLMLJ%KkkKJL%lLPPNK%JKk%NQN%lnmJj%LmomKKlo
9717A3mJnnjk%lJKKjojLJJ%molk%%LLlk%LLj%%k%JLKkKRLJKLjomjNNlnm%ljKkkklJLknjJ%JLJK
9646a2%kjMPkJJ%KJ%lkll%JKLLLjl%jmmJJlJ%JNJJJkjkm%QOlmJKmj%KMlnlk%j%KJKKkj%JKK%kk
9574a1JNKJkn%jjjKJkkKN%J%kONmonjPMlljllkk%KLK%jnmkKN%LOJjlkK%KKLNJ%%jkkkjkjMJkJK
9502b%njkjMJjJ%%K%jJkjKjkl%KMJjNKkj%ljJJLKJJJL%JjklKJl%jjJ%ln%KkmjJPOllkkljLMLJj
9430am%K%jk%%%NJklKJkj%lLQMOLkLknmKONLkLMJLNQOJNPOOJ1PQJ2J3J5J7J9J8RNKmj2j8k2k2
9369A33j4pnj5j4mjmqnjj%jJml%jKKKMjJPQJ0RRPNQJ3J3J5J7J1J2J4PKJlmnrj1ppokNONJ0J3J5
9313B24J9K0J6J7J7K1J8J4RMkmqj5j6j8j4j1j4j5j3oonklKQJ1J1P%kLRRKLJ0J0KLONOMmj2j4j3
9264B93j6k1j9j4j4j0j0pmmKLPJ1QRJ1J2J1J8K6K8K8K8L4M2M5L9L1K5J7J1NNMjmqj8k1k9l6l8
9223D79m3m2l7l1k9k4j9j6j5j1pnplMLLOK%MJ0J4J7J7J2J7K1J4MMNrj3mkmmponomopooopmnlKN
9171B40RJ3J0J1J3RQQJ4J3QJ0Pjnj0j6j6j7k3j8j3j3j6j4rpljKRONQPJ0J0Njpqj3j8k0j6j3j4
9125A43j1j0j5qmrj3p%klk%LKL%onLLLJjNN%OQJ2J4J0J3J2J3J7J9J6Nmj2j3j1j6j9j5j2j3j2qq
9076G7j1rj0ljkjklojkkJJjk%JMjon%%k%j%jmk%jJOL%jmJKlKMlnk%MKJLkklmljj%JjjJLKJJjjk
9006CjJJ%lJ%KJ%JkkMMMJmk%%KmlKLlljlJ%ojJKNJ%Nj%LjJjljJ%lkm%JmLLlj%%N%%J%LJj%%K%l
8933ClllMOjlJKKJ%mmJLKKMKjjlJjlJk%KJ%%K%jkmnmKKJJm%Ll%L%klJLKkJLK%jJ%l%jjJJMNknm
8861c%MKKjJLKJkmpmjJOLKlo%Kjkj%JK%KJJK%jJj%jjlnKOJmk%JKJOJk%ll%%omJ%%L%JKjK%kLKl
8788dkNLJ%kj%JonLQLmjKljkkjKjljMNKjKJlJJ%KnjM%%J%jlmnlJLM%jJJjJL%KJljKL%%LLoqJK%
8716cJJJLJ%%ljmjLNLjJkKJol%KNOlqmjkm%MJkJK%LL%kJ%%%jJLOkn%KJmk%jkkLLJJJjJjjKj%%j
8643AKL%%k%JjJkkK%%jJNQKlmnlljlpJPMklJL%jJJjkljOOL%n%KjkkkLOJkjkjkK%jkKKkjm%LLMl
8571DnJKjm%LomMj%%lkLOJ%kjjjj%OLljLO%jNMkkKjlJJljnm%%NK%JkJ%mkjjMMLKjllJ%ll%JJMK
8498E%%no%Jk%j%J%KKk%%kNLj%Klm%KllLMjJjjKKKNOJkok%lJlk%KM%MM%nqlj%JMKlllKLk%JjjL
8426cMjlKJJML%JK%KJlmjklj%JJNJl%kjjljKL%jj%JklKK%%Jjk%jjLL%JmlLL%npJOM%nlOQLknjK
8353DknjJjJO%j%mjllj%JLKKJmlmjL%JJjklMOLMJ%mKOmmJllmkkjJLK%JKKnmMKjj%JjkJMNL%Kmk
8280aL%%NLJ%jjmm%%Klm%KJ%LKkJjj%kJJJ%%KjjMKjKLjmljKMJk%KllKMNJkj%%kkko%KKljK%Jlp
8208f%OLKKlmlklJJ%JlJL%JJN%J%kkpo%jJ%LNJkLMkkjk%jm%LJ%jjJK%jkJK%%jlJJl%JjLKMMk%J
8135Ajkll%jmk%KKJKMk%M%nlMQPkoKKkjJMJj%kj%JLon%MLJkjJkJL%lmjKMMjl%jlk%JML%jjLL%k
8063Gj%jKjmmmJNMkkkkJKjkJOMkmlLOLkm%KKJk%%JJJ%nok%k%NOO%olKkkKK%%%%LJlk%MJK%k%%j
7990Hj%kmlkLNjnLKjKjj%M%okJOPLmnnl%jjKL%%JjJ%kn%MjlJLMKklJKjKjlKKjllK%mmK%JMjljM
7918cLJjmkjkkjLLKL%lJ%K%lJj%JjllKMKkkkL%lJ%lkknjPLj%MMLJnnjkjMNL%m%%kjKL%kjlkkjJ
7845a3MKKMKkJJjljMJKMJK%mpjL%kkLLjJJJJmlJlkMJl%L%njKJJ%lj%%JKjkJ%KJKKkjnlJLMJjk%
7773cjJMKLjKKjkljlnjNNLKKML%jJLlnkjklKJjJjjJMLjnoJJo%NJljLJ%%lLMNJm%Jj%KJ%jooJJJ
7701BKj%JljNLljj%J%%lm%MLj%%lJPKkjjjjkjK%klkj%JJKkmjKM%%LJKkmKMJ%nmLL%k%Jk%%NNkj
7628F%lnjjKKnkjjk%jj%j%kKO%kl%KJKklj%JJJk%%kLLjjKL%%jmlLJJOJKKkmjLlmLMjjJjm%%l%l
7556a4JMkJ%jml%L%jNNKkJLkm%j%LL%knJJ%KJj%%KMJK%jJ%llkjlLMKJJ%K%lJJ%jk%LKJMkj0lLL
7485AJKKJlkjLKl%jjK%JJjj%jllJMjjjKKL%k%jJMjJMJj%onKJLKlj%%LlpKKjJJ%jLNLjnkllJjjj
7412dLNLKj%jmJL%jKJl%LKJml%kJNJkkmj%LLnkKONjmpmJJj%LJJkmjJkjKLL%jklk%KjKMjkm%L%L
7340@MkokKLknkJKLLkjM%lJKKK%KLkql%jKJ%MQKjkpklK%kJ%%jJjjJljKK%kL%JKkpkJKMMJkkkjK
7267cn%K%NLJ%jJkljkjJL%lMNmj%l%jLLkKLkmjkjLJlKOlokKNJlkjKKJK%kkjjmKL%%jJ%kJ%kjKk
7195h%MlkLK%LjJLkoo%jkJMM%LLJkkjkLJokkkLKKNknlkk%MMMKkkKMkkk%K%%lrl%MPMJ%%JMJkJM
7122Fklk%LK%JMNllmkKjj%Jjkj%LJ%%kl%NjmJMKjjLKopJMlnKPJnjMk%K%%KKkk%KKkkJK%kKKKmo
7050c%KNKlJJK%jLjlllKKk%kKNjljJKLKjkJko%KKKnokjJMNLjlljk%jjMKK%kK%%KkklkLL%KNNJn
6977Gmj%J%%%JMll%kjJJ%KJ%%kKMljLJmlJNKJmqjLjjKllJJNklKJ%lljKKJ%JJmmJLLlojLJL%mKK
6905ekl%MRQKlKJllkknjLJ%KMln%JM%kjkkljjllJLNNlJJkKkm%LJ%JjJKJjnkJJ%JO%k%ljMKKj%j
6832BjjkjJjl%%JNLJNMon%nmJ%k%LJkLKJMJj%jlkkLKjL%%jjKjkjlk%MP%kMKlkLLljLjl%KJlJLk
6759G%%mjj%KJmlJKLKj%lLNlnm%jjjKMKKKJlLMkJlkKjo%JJJjLJkkmJjjMOK%mmJMJkLj%LJJl%KK
6687A3jmnjONPKpmlk%K%jJj%kkjlmkLKmlMNkj%JkmkJJKLLJLKJjj%kKK%llLN%%%jJ%kmn%JJjJJJ
6615Bjon%%jJJKJj%NLjKKjjk%MJKJlo%NLjkjmJKklkNLK%klkKj%lJNJj%kmkjjkkLL%MM%J%jkj%J
6543@Kjljjkk%JMMLLklJK%k%jLNJl%JmnmJMJl%M%JlkO%mjNNJ%nlJMlnkKNLjJjklkKLJ%j%jjljP
6470F%lJjkklj%LJlkKLKJk%krlKLKklJJMOLjlklj%KKlk%KJjkkjKMJ%J%jkJkkJjj%M%nmJNMLJml
6398hkKJmmLMLJlmmn%OPLjpkOJjJ%k%jjk%jjMQMKJkjLJll%JJJjo%KKLLMJljj%JmmMjjJJ%k%jjK
6325@KLkm%MJjkkL%%%ljJJjkLJ%kjKJjkljKMN%%llj%lkLJJJLJmlKNkJjm%jjM%lJMJNMmmnk%kkJ
6252gKLjl%NMLjmJMMJLLolLNKjjlnJj%jjLmqk%%KMLknmJMMjpm%kJK%jLNKL%lkk%jlK%jj%MJ%jk
6180fM%JJmLOLJ%MJLLmjlnJ%JklL%LMkMPOKLPMNNJQRPMorqorj1pkjkj%Jorm%LLjm%JJOMjnlJ%J
6108A0JLOMljLJJLk%OLKKKMQNMJ2J0N%oorj1pmlknrlLjllLK%JlkmlJ%l%MjjKmlkkJk%NLjkkJKJ
6040A1jjJjlJ%mojONLQJqn%klKJkmJRNKlrkJjllKPLlljML%%%K%jk%lmmnLLLLkK%nljjJPJljKjk
5968dJj%L%mjKJkj%JLL%k%loj%lJLLJLJlkLklON%kmkJJLM%jmjjjJKKjjKJjjjJkjJj%L%jLMJnmJ
5895bJKLmn%K%ljLMJ%kkknmlL%%NNKKNPJqllJOkllkKJKjjj%JJ%mm%JJ%JllLNKklj%jKklMOJ%J%
5823AJLNknmkKJKMj%NJkkjjJJjkJjmjKJkjkkKLjnkMKJMjjJjll%LOO%nkjo%NLLKL%oj0mKKMJkKK
5751CJkkklkjKJlj%LKNLjlj%l%NJ%Kk%j%JjmljjJMNK%LJknmkj%jL%JJk%LOJJJooJNML%kkkJJJj
5679Ellm%LK%mkMLLMkjK%mmkkKL%%J%kk%lJNl%Jjk%PJmmKOjnlKjJK%%mkKLKK%%L%%J%kklkLMJm
5606@njJKOJj%mkJJ%lK%LN%%j%lpkNL%MLjnnJLLnlMKKJjLkkkmjJMLkkjKLJ%LKnmk%KjkLJljlkK
5533eNONjknnLJjLjj%%JLJ%LjlJ%nlJKKMLj%%nkNLkk%jokLKjkJKJJpkLKKk%k%LJJJljkjKjKLJJ
5461FJ%jmmJknkJLLJjllJ%jNNjmlkjJ%jjJM%kLJLN%JKjmmJkjKKkjKjLLklljNLkKKklkkJ%kLOKn
5388AlMMLJKkkJ%jlkKJLM%nlllnlLLj%Jo%MJjljKMMLJkj%kljkJKlkKjnjL%LM%L%kK%%NL%jjjmj
5316@jlM%n%LKj%J%kjJJJKnjJjkjNMjjmk%LNOKjL%ljklomjKLJjjjJJNJk%jKLknkOQLkolmpJLLL
5243A%JjJjjJl%LMKkjkljLMLnmLNL%llkkkMKj%%klL%k%kkJJKKljjKOljK%%LK%JlmkmklMN%jkjO
5171AKmklJNJJ%%knJMLJmlJ%MLl%k%Kkm%NLLKnnJJkkJLJk%%lj%%%KJ%kkjJKMKj%jKL%klmkjJJK
5098bJmm%JLjlJL%ljLK%%JJJk%NKmkKL%%L%%knn%NM%lknkNJj%%jk%lKL%%K%jkmJNJ%M%olLKKNl
5026AlJjJ%l%jJKKj%Jkmj%jk%JMNJjklJJJkmMKjknk%%kKLKMLlmJl%KjjLOMJ%ljjM%oJMjLNknjl
4953alKJknkLJjKJKKLKkjjkJjl%L%qmjKQOJMJnkJlJJkLlkMLJkmmjMLKLK%jjmlkljMJJ%oplJ1O%
4881@kkKJKJjKklLKkjjKLjl%kk%jlJLJJ%%J%jLJJjlmlLJk%lLPM%ll%%%JJK%%kk%%NKl%nJJkKlk
4809eLKJKjjMjj%kmljKLj%JjJL%jJJJJkLJklljKNMJj%%KKklmkMKK%jkjKkjNJkKk%Kjmnjk%LJ%J
4736BKjknlNKkjjk%JKOJj%ljLJkl%jlJ%%%kkkjL%%JON%%L%jjJklknjL%ll%LLJkLM%%JklMOLkm%
4664DjnnJNKMLkkKLok%lj%jj%MJ%jkKLKKjk%%%MOK%poKLM%poJNPJml%lmKKMNkkKJjjKmkNkpjJL
4591C%KLjMKnmj%kKKlKKllJjMLm%%%Jn%%jMMKK%ljkkKj%kj%j%jkJMOKmlMLJkjJ%kqkmkNLLjonL
4519hNJJJKjkjJJmkmkNO%j%jJKJNKnkJKKmkljNLKjnjL%kL%onjLNJkJLKJ%kk%ol%%JKJJKKjJjjK
4446AKKLkpojk%KL%mKMjLLkjjkKMJjmjljNJKLJK%lkjjjJll%JKJkjMPLnojKM%%klJMJknjLjnJON
4373EkokKJJKkmljJkjKj%NOJ%J%%KKKKkkjjKjjkmNLJLkljmlNOkjKkmlJJkJJ%KJlo%MJJ%%LJmk%
4301ajjmLMljK%jjLlolJJ%%K%JL%lmkMMKMLkjJkk%KKl%jllOMjJkmJKk%OJkJknKN%jlnjNMjj%%K
4228AJJ%JjnljjOMlmjLKjml%JLKjmkMKlJNLLKllkJJJK%lkJKKlmkjjkjJKjjNJK%mjKKkkPM%Llml
4156aJMjk%LJJJljJ%%%knjl%KLJlkjMMjj%LM%mm%KK%L%njK%kjkk%lKKljLKLJkJJm%KJ%LKlJM%J
4083G%lm%lplKOMkjMMlm%KjkKKkmJKJNMnmnmMKK%lKKjm%LJKMlnmlKNKNMjkJklKKjJMM%kJjlnmk
4011eJNN%lmolLL%nkPNJkJPKlm%KlmKLJ%pjOnmMMJ%MMnoLMkmjKjJJ%mkNLKjplMMjmmk%%KJ%JL%
3938aomJLM%jjKNJj%k%%kkJM%lKKMjpokMNKjKlmJKM%%JmmjLj%MNNjm%MK%kljkLOLnnJ%KMNKooj
3865FJlmnjLLMk%%l%LLM%JJnm%MM%j%%lljjJKN%mlkmkKlnJOMKlmkmjKkjMP%LKJLKKLKl%%lnlJK
3793DNKJJjJjm%%kkokO%KNjolKKKjlLM%kjKKnnjjkkLLklJKJkj%%LJmjJkjORLkoml%LKNLlklkMJ
3720CkjlJLjKMKjmp%MKKlnjjKPJlkjJLJJJ%jjJJkkjkJMkljjkk%%KLMjljkKjkMO%p%JkMJlJMj%M
3648E%lk%NkkPkmKJ%lJM%lkkkk%Kl%NLkkLNKkKKjmmnlJLMK%k%j%J%NKljkj%knJJJKjkjMKlkkML
3575BlkJK%klk%omOPKjJKlljJJ%LKjjKOLllkjKkllJKLOPKppm%OMjm%Lm%ONjnml%%jJNN%ljMJol
3503A%j%NLJkollJQPPMknlKKjjJjljJKJjlmkkK%mKOLmjKjLLkkkkkJK%%LKjkk%KMKlmmKKkLPKJ%
3430A8%%kjjJJkkKPOkkL%m%LJLjJOMKJJNQPKkMNk%J%NPLOJ1J0J2J7K0J6J6K3K8L1L7M0M0M6N4
3374D93N4N7N5N7N7M0K3Qj3l7n4o3o5o0n8n9n3m0l4l4k9k2j6j3j3nlkjonlNM%MOQPOOJ0J2J0J4
3330B48J6J5J7J4J3J9J7NJK%kKJk%%KMNKKMQJ5J6J8J4J5K6K5K3K6K6K5K7L0K3J0Knj2j8k9l4k8
3286E88k5k2k1k3k2j8j4j4j7j3nmoplKj%Jpqmqqnrj6j7j7j4j0j1j1j3k0j2j1roj4j3mnnjKMNLP
3237A39J3J5J8J5J9K2K1K9L2L2L1L6M5N1N5N4N2M9M1K1%k2m5n5o1o7o2n6n6m7l6l5l3k9k6k3j6
3202A21j4j4llmoj0okmlOLlJlqojmnllK%nmJ%plmJ%mk%jnjLOO%nmkk%J%kkKLJJJkl%jk%%lkLK%
3134gKMJoklnKLKLjjLLLklJjkLJkKPNjkokJj%jJMJkmk%KN%knm%KMJnmMMJKmmk%MKl%KkJ%kLKj%
3061cKJ%LJlKjpj%jjLOjmJKKlkjkK%MM%jJNLJkJjlkk%nmNMkJKkkmlkk%KLkKK%L%J%KJpnkJJK%%
2989gMNLLKl%%JLlkpmKMMJKklnlKKKL%nlJJJJjJ%mjKJl%LKKJj%JkmmJ%lJLKLlkk%JkmjMLJlkjj
2916a2LMJk%L%JjkjkJKLMkonlJKKK%mJOMKjLMl%OJklolL%%%jjjKjkJJKj%%jj%j%JjJj%JjJJKL%
2845DLJolLLljNJkKmlKJnoJK%JKKJK%kjLKk%kkJjjjJjlLJlljMKJMJ%%%%jK%klJMnoj%j%JKLNLj
2772DllMMllkKLk%KLlpm%KKKLloJjlKOO%lkJ%JLJjkmjMLKjjLLMKjmmjojLjm%NL%kKjmk%jJPMLJ
2699A2okLLklKK%%kL%n%MkmKKkjLL%klkJNJnlm%LJKMKjkmKJ0Nj%jklkk%lkjmMNJLMJjjmk%%Kjj
2629I%llJLJ%jKKKL%klkLKjooj%kKO%lkJjl%m%NJ%JMjk%KL%knlJjkLJ%L%kjjjKNJlkMLjKLknnj
2556bKjkJMJmJKlnkJLPjnKKknkkjML%%mnJPLjmk%KKJkJKkjjjKLMjlk%OKlmljKL%ll%Jl%JkjMLJ
2484e%KNkljJJKKlmLMK%jkmkJjjKloKMLkl%lKKl%JLNMJjol%%LKKlmKMMJllKPjmkJjjLLK%ljL%l
2411CJJlnjjj%JMKKLjk%lkKJKj%JnmNNNOKlomLKkjk%LjkJkljkl%LJJ%LKJLjmllmpMNJLKLknmkj
2339a0MMjlkLM%JJ%lJJlJJmkMNjlJKNlnKJjkjKKJmmjJMj%PMjmkmjLkkLkjJJ%poNOLJjJK%jJjll
2267fKMJJMMjlJJjqnKMMONml%oJNJJklLMjmKLlkMMlpkjLOK%olJ%jk%lmJNLnkJoo%KNPjlK%LK%M
2194GJk%%LlomjNNJ%%jjj%lmJ%mkJljL%J%LOJ%jJjj%%mmjJL%okLLKJJLJlK%lNLmn%L%k%kkNOK%
2122F%mjjmjK%jjj%LLk%MlJMkjk%jmlj%LLKKJJ%j%%JJJLJlKJnkkjO%mklJMNJk%JLjlKKlnkkl%j
2049hK%%jlMLk%KMNJlljkkJLKJl%Njnlk%kKMK%nkj%%KNL%JK%lKMjpj0nMRkmJJPQjk%KLm%JokjM
1978CMmnK%nLKkJLNKJjljjmlMLkkmKK%K%k%JjKPMJnnjLNKLOlqkLJkJJnoL%kKLl%N%MMknlJJj%K
1905A1jmmMPllkmKNjlJknJKNJljmjKKlkjkKJjJMMKjjjkKMjkLJkmm%%%%k%%jkk%JKJjMKMMjnnKj
1834amLKjlJL%jJKk%%KO%nplMNK%njKJ%kllKJmjNO%lJ%oojJKKLKJ%LJnkJK%lJjkjKK%JjlmlKOL
1761cL%m%%JkkKJL%%ljL%J%%Kj%%jKMKlk%jKjlL%jKJj%JljKkkJlkJLNJ%k%O%k%kljJJJK%m%Kjn
1688cmMOLKJjmoJKkLJ%KkjkkK%kkmlKPNJ%jjJ%%J%lkkjJjkOLlKKJLJ%njkkL%%jmmKLkkMLjlkl%
1616hLLolJK%mJMNKjllLKmomJJMLnnNNjJjnjjMNK%jljKJj%%KJJLN%llkjNMJjjkljNLK%kjj%JK%
1543GlLMjlkLkkKKjknjLKJ%%mnMLJ%LMj%lkLMJn%K%kj%%JML%Jjlj%l%LkljoJN%%koJKJkpmK%K%
1471hKMLJj%LJlkLKljjjnmkjMKJ%KLKkplKKKKJJJK%lJNMkllJ%%KKKJpl%mmkkKPNkkjNLk%Mjjlk
1398aJlk%kjOQjlJlnJNKlno%M%J%kMKllJL%mlK%K%jOLnk%jKNJklJKJJjjjkjJlmKOMMJjMjnjLJK
1326HJkklm%JLLj%Kln%J%kkJLjk%lJOMKllKL%J%%JkoljJLJ%jL%kL%jlkkJLkK%JLm%jMJpjKjjLJ
1253ajKL%l%L%lmjjm%KML%J%lKJKJk%mj%lMMLJlkmnJON%mlMKjklJjJ%kK%%lm%LKll%JLKjk%KLJ
1180bKMJkjJjjjjJJjjkjJK%lKP%mJK%omjJKK%j%KJLkkJKKm%JljkjklNONlmLJLJjkjKjlljkj%MP
1108DLkj%loJ%kOMkjjLNJlk%Jj%kjjkKJ%JJKKj%JkmkjlKPM%nljljLPOjmkKL%lolMjrmML%LMKJ%
1035DKjJL%kkJMjKJjJ%kJ%%jkmkKJnmjPRNjoojlkPNjklJMJ%nnkKJKKK%njJklLM%klNLnlJkkJJL
963@JlLKklJ%jMjnm%MMLJjljJKJJjklLPJmmjJkljKJkKONklkm%NKljjk%mMNJLL%j%kkNNlmKKkkn
889ClLJljjjkJLl%%jLLL%lkkl%MN%nJJmjJMNJllkknJONjmlk%LKK%LMMKJJ%%loljl%Kj%K%LK%lK
816GOkrmJJKLkkLMKkqkOMKllKMJKM%llmjLK%l%Kl%K%LmoLL%j%j%ll%n%MJ%mlKNJoJKLNMkomkML
742CjLJkjjmjLNL%nmJMJjJjm%K%ljJkmLjkLKJ%pkMjkKMK%LKljLKJKjkjkjMLopJLJKMJK%jJJKJ%
669A3jkkJ%njMKkljJKKMJkKK%kj%k%kkJkj%l%kj%kkl%NOK%%%N%%%k%jjJLL%kokJkk%kLRLkokLJ
596FL%kj%KklMLJJ%j%kmkkjJLJj%MJj%KkqmLPM%JJ%jjkljJ%JJJmlKJ%LLj%%llLOK%JKjKL%MK%N
522C2LMMLNMLMPN%jlnkkoomkllloplk%ljLJ%JL%lllkkjKj%M%lmnJMMKklKJmnojjKMMMMJjjjkjk
450Bm%OLkLMkjKknjLLJKjlnmmJ%MQjrqJP%l%KMKJjjKj%MJjm%M%%%j%Jnl%LN%j%lmjJJLjkkJMKm
376AlKLMlnkkMMkkkj%MKJ%ljOJjjkj%jKMJ%jkMjojLNKlnKLnlkjJOKnjljOLKM%o%L%K%j%%mnl%N
303AL%jmjKJJJmlN%kkljkkLNKJLkkkkjJJ%%KJjjk%JLLK%JjjKlnkkLNK%jKMjllkljjKJj%ljLK%j
229d%kLLjKlkK%%kKOKkmljKKljMlolkMK%NN%lLKkkk%%jl%%m%K%k%Kj%%nkJJ%NPlnnlKKJJJljNJ
156ijnn%LMkl%J%JjkkMMjmk%j%KJLJmlKMj%%klk%LLlj%jJL%lkLKll%mmjJMKJ%m%JmKKl%MjKMJ%
82b1kpjJKKjk%LKljk%K%JkMLlJ%JJkKjJMkJOONRRNPJ1J0QJ6K0J8K0K4K5K9L7M1M6M7L5J9%pkO
24D31K4M8Q4J16J38J61K01K53L02L50L96M42M85N22N69O28P05Q09R47J110J303J492J603J396
1A4515P23o2o84j148j431j523j399j143r09p69p19o84o16n13m15l38k76k30j95j64j41j21j02
-21A656r1p7n8m4l4k5j9k7m6n6o3p4q1p4o4n7n1m9m2l6l5l6k9k4k6k5j9j5j8k1k1k4j9j0j0j1
-56B45j0j0romnj1j2j0pon%KkpmjklqpkklnmmJknmkklj%jjjkkLJkklnmJN%kjkkk%j%PJ%Kjjllj
-123E8LKkmkkjJj%%jK%kkjjm%KllJKK%Jjn%jmm%LMMKjjlljKkmlm%j%JMLJMKkklkJ%mJJ%%jml%J
-194B0LJjlkJkjj%%%MMM%nnmkMNJjK%%jjmlLPLkqlKMNJloj%lKONjpl%kl%jjOJ1LmlnlJ%%kj%MJ
-265A5m%jk%JKJkj%%LL%lJKkmk%n%LLLMlpmkKPMjjMlkjkkkKJJklNLjJOMoj1nM%k%%LNKlkKLKjk
-336HnmJKlkK%KMLLjkklJNLJ%jklJKlmjKQLk%%kJLkpnk%NLmjLJKK%%lkk%LJlmljNJjlJMJmn%jj
-408gJJ%jM%kk%%KNklkkNMJjk%JKMMpkNllllkKLKJJJJjmjl%PLjmkJKJ%Kjk%jL%nlJjmkLKJPKlk
-481bJLJjlkllLNMKnnjk%LJJJMkojkkKNQNKK%%NNjkNMJMPPMORNLlj1pnprpknoplkKMmlJJJ%Jjj
-552BKKjnjkmjL%%JJ%JKLMJlnqkJ%%JMNLllMjlkJKKKJK%k%LjkJ%polkLMMJ%jj%KMLjlm%JKJKjl
-625@Jknj%%KJnjKKKkm%LLMKJklL%jkkJ%%kj%JjjJjKJ%%kjJKlmj%%MK%jkMLjlmkJJJJjj%JKMPM
-698HnmJLj%L%lKLnklnJjjj%LKJkkJ%mnlKNMMNLkMKmj%kmn%ONJ%mjO%J%lkj%LKlljOMpm%kJKMJ
-770CjjolLLNMjjK%J%%%J%k%llK%K%okNMLKmnjJLKmjKl%KM%kkmJMjjlmkKNKmkKLJk%K%KJkjkkj
-843c%KJjmjKLO%pmJKk%mlKMLjkl%P%pmKKJJJmmKOPKml%KkjlJKl%JJ%KN%kjlllmKMKMJlolMNMJ
-915@kkJjmk%%jMKKjlM%jKJl%%%KLJk%Kkom%%%JKK%jlJMJjk%JJKKKkKLJjmkjkJJKLJknm%KKMNo
-988@r%MLjLLjklljJkkjlJL%MLkjKkKNJknmkKJjMKJJkJ%KKjmmJKNJJKk%jLJnkLJjkkLMJjnkj%j
-1060dJLkk%PMmJJJJJ%mqkMJJKknjNMLkk%jjkKJlKj%%kJLkk%kjmJNJK%J%JLlmKJlKQMJlk%%kkj
-1132BlJOKL%ljLJjk%mlJ%jkj%KNMK%jmj%kKPKlM%kklL%mn%Kl%j%%k%LLlJKljKKj%%jkjKljM%p
-1204fmONlmkKL%JLJkl%N%j%JLLnnKKkkjJQJl%jjll%%LOKjjJklK%kLNjo%LjJJnrmKNLNK%kmllj
-1275hLM%%KmjMJjlmmk%LNM%lJK%LLjpmJK%ljLKMQjqlLKllkJNMlkN%nJJLLklJMkjKjJkjKmnk%%
-1347fMNJJLjlmJLL%klljKL%KJJkkL%jnkKJj%JkKNKknKMlkk%kkmkKLLjkK%ln%KKKjkjjMK%KjLM
-1418DJL%nmkLLJJ%momKMLkJ%JPjklpLPLjjjlJ%JkkKKJll%j%l%NKj%KKkkL%n%%%JKL%jKjjJ%J%
-1490Ej%%kJ%j%%J%%jjKnnjkJLLJjjjMKnlJklKLLNkmJ%jk%JKJnnJKKJOKl%JJK%jklk%LJ%JkkKk
-1562djNLJjlkkkJJJkm%k%OMjl%jj%NNQNmmlm%KPKnmkjJj%%mnkJJKJLLjmlKLMJonJMKmmLNM%jl
-1633bnkKJLK%LJlnlLOM%Jjmlo%%kKK%%%KMMLknljk%%%LJO%m%ljkKNlmmlOPKK%jjj%j%jljJ%MM
-1705DjmlJJkjNMjmpkMLjj%%LLll%kjJJ%LLKj%kJNNLmkJlkKJjkjkjkMOkmk%JKL%jmmJMK%JKjjj
-1776ClK%jLkllj%kLOL%mJjnjOOjmjJlmokLLLjKKmJL%JL%JmnJ%Jkj%kLJ%kmlnLPMjlMLjjJKJ%k
-1848ajkmmjOPMKL%nj%J%kMLjklLKjknJMKLjk%KJomJNM%%ljJJKJk%KlmljLklLMJjJLL%kno%MKK
-1920GMjm%MJlJlmLKKJlj%LJmooljLLjJkMQN%mln%K%JMKmj%%LjljJkjKjjlpkLMJ%%ljNPkkK%Jj
-1991Alj%%KLKlkLJkKLJljjojJjj%JLK%JjkKLJLKK%lmlJLKkjkknmJjjMNOLjl%KJKplL%J%%kjJj
-2063@jjjljOKkJMLJKJml%%kjLjkK%lmlk%JMM%jnlKMMjl%KJjkjJ%L%kNLJjjjJKkj%kkn%LKjmjJ
-2134eNK%JljKKjmjlkKM%jKMKlm%%ljMJkjKONKkommJJjkJjJMllKLMkjjmJMM%lkJMk%Mkk%kk%%j
-2206dkKLmlK%J%JOJnmLLjjJMJmok%J%ljjjMK%JKKNMJknkNJJJmmlj%JLKJljOKmkjk%%%%%kljKM
-2278c%jjLJkjKLKjjkKKLLppJKLLJlmJjm%j%NL%M%kLjlkk%lkKM%%M%jlkjlLLjkkJ%LPKkKNjmk%
-2349EkjM%lknjKJk%KMJl%Kk%KJLJom%kmkklNQMJKL%j%%lj%k%L%jKJJLklllpJQKjKMJjnjKj%JJ
-2421DJkjJmljLNJjkpkJkJJLNMK%LKljkpkKJJKlmlKM%jKKKJkjKkpJLkJ%j%kjKLJj%JL%kkJjlJN
-2492BJokKLJjlmkjkjMKj%m%RNkjjjJJjm%jljkMPLljK%%ljJj%KkkLKj%%kjnp%KNNJJ%jJJKll%%
-2564gMNLmrLPK%L%mLjmJJ%%jJLJnljNMmkKKKnnNLKMJkjJjkkKko%MKJjjjmkKKJjmnPPkll%llNM
-2636AjlmkLNPJnllkjJjo%OK%%kKN%mjJMMkk%K%J%%mlMJJklll%%JNOLnk%J%jKJjokLOKmjJjo%L
-2707d%KKJ%lnjNK%kmlLMMJnlLJljLMJl%J%%kKMLkmkJKjj%jj%jLKmkJ%JMNlmJ%mjLmlKKPOmmm%
-2779c%Jkll%NK%jmJopLMLJMKlKMkl%JJlmln%JMOLKmojLPNJJ%kkljKKKMJlkmkKKJ%kkL%j%%jjL
-2850@K%jkjJjkJKKOjlJKkkKllkjJkjMJjMNjjlkMLjkMMllllk%JJNJkjljOKlj%JkkJ%%KJmKNjm%
-2922AKokQPKmnlnJKJkKjo%MM%jKKJ%%J%jLLkjJlmjKKJKlnmkJljKMOO%opjMOOJknnJ%J%l%mkKJ
-2994e%J%KKJ%%JMjnkkmKJ%Jkllk%LM%klkMNjkLMjpqJQLkKJ%kJkkKJPN%jqkLmoKJ%%J%lljMMLP
-3065C%mmjKMLll%%JOKl%kmmjLMNLjl%kkklk%MLOOKlqo%JJKKkmkl%LMNKK%mljlmLM%jkM%%L%KJ
-3137Fkjk%%jmkjJLjJNklj%lnmJNNjk%JjkkjJMKjJkjKJ%lkNOKkKKnkkmjJMLkkklj%%jLKKkmmmJ
-3208a9KmKQKJjn%NMKjKKjklk%%KJkjkl%KJjjk%JJ%kJM%kk%j%NL%%KPMlnlLKjlJ%jjJLlm%%M%k
-3279ekkJMKkLNJJkkkjmjRM%JmjjlnlLMLJ%nnMNJkk%JLK%jKJ%ll%KJkJJjjm%%%klKMMK%K%jKK%
-3351IjlokkKMMjkKjlJ%k%JMKJjkJLlkJjKjnlLPJkJJKljMK%j%%%kkJkjKLKoj0jONO%onJP%%Ljk
-3421HJknoKJkmlJJMKj%MJ%KKllllkMMlkNMJlkJj%%l%KJJjmkKJJ%LNJkokMNJn%JmJK%jKMljK%%
-3493EMMlnlKJj%kolKJ%JJKKklJMLJjljK%%jjjknkNPjmLJJkjMKkj%kmlJLK%jkk%%KNklKjkJklJ
-3564gKJNJlJ%jkJLK%lJKJkl%%Jl%Kjk%KKjmkKMR%jjjLknm%%ljjJMNJkkKNlolJMj%jl%KLK%LLK
-3636IJkmlKln%%KKLJ%J%jj%kpjJJjJKj%KLKJjjmmkLkmLL%%nkONKjK%jkljLOLmnkJ%JLKJjn%P%
-3708Dmj%%%JJjnkNQMKLnojkMK%KK%jJJJmpnkNNJLNJoJ%plj%%JLKjoJLmlkjONlqqJQMJJJK%j%L
-3779D%nmjLLKjk%JkmjLk%L%kKLkLMjkKM%jjjmpnjj%LJ%LJkKMJKJmmkKLk%jMKjjlJKmjKkm%JJO
-3851bN%jJkml%LkJNJnjMjmljjk%JNOLmpjlkPPQLmplJkkjKKj%LOKmkkkJN%lnmJ%KL%KLLJlkJ%k
-3922@%MlnJKjKMJnm%JjmjLKljLLJLLmn%JLM%lmkKJK%lJMK%LJJJmjKK%kKKmmkj%kjNRjqjONjok
-3994CkmJJkKJ%%ljJLK%Jj%N%m%J%%LMlnkk%JjkLMNJkLlok%MLKMKlm%kk%jj%kJM%omJKJkLJojj
-4066gKMJK%om%KONklkl%OKjLKjkJJjK%l%MKkkklKKjlkjlKNOJmk%JjjJll%jmj%KJKK%JkLKlJJ%
-4137AjJKlkKKkokMLj%nkKNMlkJK%jkJLJNK%%nkKlJLklJkkMMLKkkJ%l%kjOLkjllJj%LJjKkkK%%
-4209Dlkj%jlKLKNj%LlqljLO%%JjLjm%KLlmKLjk%L%%mml%LJ%JLKkjK%k%jkkjJKMJmJJ%jjJKJjk
-4280b%J%KjnnkMM%ll%LjJNMK%nokKNOkjJmjK%%L%mlkJKKMNNLmmkJ%KKlkkKKl%lmkkMQLkjKJjl
-4352DkjjJJklklmkKNJJPJlMJoJJnolkMNJLN%nkjLLokPPkkK%kKJkjJ%l%kjKMkpqkJJJKK%jMLjk
-4424e%Jl%%LOQNomj%lnJLj%KLPjql%klMLMJkjojPMjmLOKM%qqmJMjjjKN%lmlMN%MLkljj%jkLLj
-4495Gnj%lj%%JjJjKJ%jKLkj%j%JMKnklljLOKllL%n%%JJkl%LKJJJj%Mlm%%JK%KKkjkJNJ%%jljk
-4567am%jkjMKlLNMJmjkjJjLLkmn%%jLOKjJJon%L%jKLKKjjKOMkmoml%OLkllmjJJkjMJKMLJkkmJ
-4638aPLJlkKjlJLJL%jkkMKlmm%jJLLLjJL%kLLnlKJkk%%lkKM%mlKjkKMJkm%L%jKMKjjjjmjL%jk
-4710ClkMNj%LJJjk%Jkl%jljKLkmjjKjpkPPNMLjqn%%mjKjKlkNLNJkJLKkmmKMJJJlkJJ%jkJMknJ
-4782CKKjkjlkjKNKmJ%pLMjLKJ%j%KMLlnl%JnkLL%Jjj%jjljJln%NNKklqmRQ%n%Kj%jJONjomj%%
-4853b%%L%%K%OJll%jkKjmLNjnlklKKMNjjMLJJJkkJjnn%LMM%ljmplj%NLjlKMKKjlnkJJk%Mjnjj
-4925a0KML%J%KKk%kkKlkMjjMM%jJJklkj%ljJ%KjjJJkLNkljjkJ%JLKjkkKLj%Ljmm%LMLllJkJK%
-4996@LK%jjmnJjolPNj%%NOJJolKmlKLL%JJlkjKJkKKMNmkJJloJ%KKkm%NjlkJ%mJkmkjNQJ%JkKK
-5067DlKNJnnjMLjkJJjnnkkJN%jJMMmlk%JKJJLKjlJM%JkmjKKk%Jjkjjk%MO%kk%%kJLLlnl%Kk%J
-5139dJK%JL%%jkmlJMM%jkl%jjKKkjMjlNMKkmj%JJKK%%JjjjkJJKJokM%KKk%%llkJjjLJjKKK%j%
-5210CjkJM%kjnpJJ%j%JLKJKjk%KkkJJKllNPkokKJKKj%JolkjJjkKMJjjNNmnkKM%mjLLLJmjkjLM
-5282BLJkmmkMMkljomjLLJJNL%kmjLK%jkkl%OKL%mjjKLLLMLpj0k%LNLjm%NjklJJ%KkkLJk%kmjK
-5353cMMKjjjjjojNKJjkk%%jJLjmMLj%KKknjPKk%jJKjnmnjOLLKl%%ojKJKklkLJlj%LNjlkk%LMK
-5424BmjJloKP%%%jLLMMJk%%kj%lp%JjKKLMjkMK%lqlk%j%jlMK%KKjpkMLJL%jK%K%kljJL%%jlL%
-5496Aj%%%KJkLK%JojPJ%%jmlJ%jkkklJOLllJJLMK%jjkKJjkm%k%OK%JllKljOKJJ%JLkljljLNJj
-5567Ilmj%j%LMjmjJLKJJjkKJjlkJLLmjLj%J%kjLJkjjjklkJKjlKOLkjLkkJl%LKLNMlmlmlkJK%l
-5639am%NLj%J%k%M%lj%%jMJkj%jkkJ%jjJ%kKKK%%jLNjm%KjmkKJjJlJL%%%lklljJ%JPPjmjjmJK
-5711bk%kkJMJjJjj%kJMKJkkKJkjmmjL%KL%JjJMjmjjjjjKL%%jlkJK%j%%LMJkK%%J%j%%kl%JMJj
-5782AmlJNLkk%kmjMJ%ljMMJjkKJ%K%jklk%%K%lK%m%LJJJ%%KjjjJjLNkmmk%jJM%kKK%Jjjkljj%
-5854hKM%ljJJkl%JLjjK%%JMJ%jmJKKK%kjkjJkKKkk%LJ%jnlK%kNJJJlj%JL%JJlljk%MKKJjlk%j
-5925f%%%kkK%LKmlKPPKonJJJJ%JJll%KKNJkl%%j%%NO%lk%jjllKKKJnojLNJj%jJKj%KK%%jkkJj
-5997B%JK%J%jjj%jKKJ%%lmJJjkKM%j%kjkmmKM%%%JKMKjkjj%jlJM%jJ%lj%%llKNMjlLOjmjM%kk
-6069B%%%%LlnLMj%Jkj%jj%J%JJjjJ%%jm%NK%jKkj%nmjKkJNllK%kJLJLJjJjmkkJl%KMMkl%KJjl
-6140gl%KKjjMMJkJJ%J%JjJ%mjjK%l%LLjJL%jJ%mjK%JLllKJ%j%Jj%Kj%jkjoKMjJKjKLKjklk%KJ
-6212BkKLJ%lj%%%kljjJKlkK%%KL%jLMJkLLlmlljkkKMj%JJ%%jlJMLkoJ%kJNNLlkJjmJ%l%L%lJJ
-6283@ljKJJjl%KkjJ%MKJkmjKJk%LLJmmkJKKLJjkj%J%jJkKJmj%JL%kJJJJ%kl%JNKkJJL%mjlj%j
-6355bKLL%m%J%KJ%%Jjlkl%LJjlkjKLkmjKLj%KKj%jk%jjMkkjJKLK%%J%Kjj%KKkjJk%JjJJjljMM
-6427HJlljJK%Jj%JJJjj%jjjJL%K%mLLJMJknkJLLkpo%kKL
-6468C $$ checkpoint
##END=
##TITLE=Peak list
##JCAMP-DX=5.01
##ORIGIN=UNKNOWN
##OWNER=UNKNOWN
##DATA TYPE=NMR PEAK TABLE
##DATA CLASS=PEAK TABLE
##BLOCK_ID=3
##CROSS REFERENCE=NMR SPECTRUM:BLOCK_ID=2
##DATE=22/03/03
##TIME=15:04:29
##TEMPERATURE=25
##LONG DATE=2022/03/03 15:04:29 
##.OBSERVE FREQUENCY=600
##.OBSERVE NUCLEUS=1H
##.SOLVENT NAME=H2O
##NPOINTS=74
##XUNITS=PPM
##YUNITS=ARBITRARY UNITS
##PEAK TABLE=(XY..XY)
(1.94, 88385277.28285077)
(1.95, 342127116.3697105)
(1.96, 683083566.8151448)
(1.97, 1578642998.8864143)
(1.99, 2675556969.933185)
(2.0, 2926664810.690423)
(2.01, 2157244631.959911)
(2.02, 998578033.4075724)
(2.03, 973116049.5545658)
(2.04, 1224809223.273942)
(2.05, 1475917064.0311804)
(2.06, 1727902904.2316258)
(1.94, 88385277.28285077)
(1.95, 342127116.3697105)
(1.96, 683083566.8151448)
(1.97, 1578642998.8864143)
(1.99, 2675556969.933185)
(2.0, 2926664810.690423)
(2.01, 2157244631.959911)
(2.02, 998578033.4075724)
(2.03, 973116049.5545658)
(2.04, 1224809223.273942)
(2.05, 1475917064.0311804)
(2.06, 1727902904.2316258)
(2.07, 1249685874.1648107)
(2.09, 470900368.040089)
(2.07, 1249685874.1648107)
(2.09, 470900368.040089)
(2.31, 451584380.2895323)
(2.32, 1303829173.1625836)
(2.33, 1067061989.9777284)
(2.33, 1400116445.4342983)
(2.34, 1005016695.9910913)
(2.34, 1029600680.4008908)
(2.35, 1098377303.4521158)
(2.37, 493143020.6013363)
(2.31, 451584380.2895323)
(2.32, 1303829173.1625836)
(2.33, 1067061989.9777284)
(2.33, 1400116445.4342983)
(2.34, 1005016695.9910913)
(2.34, 1029600680.4008908)
(2.35, 1098377303.4521158)
(2.37, 493143020.6013363)
(3.3, 800442825.7238308)
(3.31, 1816873514.4766147)
(3.32, 1490257721.6035635)
(3.33, 1077890649.777283)
(3.33, 2894178831.2917595)
(3.35, 1541474355.7906458)
(3.3, 800442825.7238308)
(3.31, 1816873514.4766147)
(3.32, 1490257721.6035635)
(3.33, 1077890649.777283)
(3.33, 2894178831.2917595)
(3.35, 1541474355.7906458)
(3.39, 1156617933.1848552)
(3.39, 371393764.4766147)
(3.4, 2289237214.922049)
(3.41, 1003553363.585746)
(3.41, 1390458451.55902)
(3.42, 1533572360.801782)
(3.43, 829124140.8685969)
(3.39, 1156617933.1848552)
(3.39, 371393764.4766147)
(3.4, 2289237214.922049)
(3.41, 1003553363.585746)
(3.41, 1390458451.55902)
(3.42, 1533572360.801782)
(3.43, 829124140.8685969)
(4.11, 4530477126.948775)
(4.12, 4982939506.681515)
(4.12, 4478382493.318486)
(4.13, 3970313482.182628)
##END=
##TITLE=Assignments
##JCAMP-DX=5.01
##ORIGIN=UNKNOWN
##OWNER=UNKNOWN
##DATA TYPE=NMR PEAK ASSIGNMENTS
##DATA CLASS=PEAK ASSIGNMENTS
##BLOCK_ID=4
##CROSS REFERENCE=STRUCTURE:BLOCK_ID=1
##DATE=22/03/03
##TIME=15:04:29
##SAMPLE DESCRIPTION=L-proline
##TEMPERATURE=25
##LONG DATE=2022/03/03 15:04:29 
##SOURCE REFERENCE=HMDB0000162
##.OBSERVE FREQUENCY=600
##.OBSERVE NUCLEUS=1H
##.SOLVENT NAME=H2O
##NPOINTS=74
##XUNITS=PPM
##PEAK ASSIGNMENTS=(XMA)
(1.99, <m>, <13>)
(1.99, <m>, <13>)
(1.99, <m>, <13>)
(1.99, <m>, <13>)
(1.99, <m>, <13>)
(1.99, <m>, <13>)
(1.99, <m>, <13>)
(1.99, <m>, <13>)
(1.99, <m>, <13>)
(1.99, <m>, <13>)
(1.99, <m>, <13>)
(1.99, <m>, <13>)
(1.99, <m>, <14>)
(1.99, <m>, <14>)
(1.99, <m>, <14>)
(1.99, <m>, <14>)
(1.99, <m>, <14>)
(1.99, <m>, <14>)
(1.99, <m>, <14>)
(1.99, <m>, <14>)
(1.99, <m>, <14>)
(1.99, <m>, <14>)
(1.99, <m>, <14>)
(1.99, <m>, <14>)
(2.06, <m>, <11>)
(2.06, <m>, <11>)
(2.06, <m>, <12>)
(2.06, <m>, <12>)
(2.34, <m>, <11>)
(2.34, <m>, <11>)
(2.34, <m>, <11>)
(2.34, <m>, <11>)
(2.34, <m>, <11>)
(2.34, <m>, <11>)
(2.34, <m>, <11>)
(2.34, <m>, <11>)
(2.34, <m>, <12>)
(2.34, <m>, <12>)
(2.34, <m>, <12>)
(2.34, <m>, <12>)
(2.34, <m>, <12>)
(2.34, <m>, <12>)
(2.34, <m>, <12>)
(2.34, <m>, <12>)
(3.33, <dt>, <15>)
(3.33, <dt>, <15>)
(3.33, <dt>, <15>)
(3.33, <dt>, <15>)
(3.33, <dt>, <15>)
(3.33, <dt>, <15>)
(3.33, <dt>, <16>)
(3.33, <dt>, <16>)
(3.33, <dt>, <16>)
(3.33, <dt>, <16>)
(3.33, <dt>, <16>)
(3.33, <dt>, <16>)
(3.41, <dt>, <15>)
(3.41, <dt>, <15>)
(3.41, <dt>, <15>)
(3.41, <dt>, <15>)
(3.41, <dt>, <15>)
(3.41, <dt>, <15>)
(3.41, <dt>, <15>)
(3.41, <dt>, <16>)
(3.41, <dt>, <16>)
(3.41, <dt>, <16>)
(3.41, <dt>, <16>)
(3.41, <dt>, <16>)
(3.41, <dt>, <16>)
(3.41, <dt>, <16>)
(4.12, <dd>, <10>)
(4.12, <dd>, <10>)
(4.12, <dd>, <10>)
(4.12, <dd>, <10>)
##END=
##END=
