##TITLE=HMDB0000008, Experimental spectrum with assignments
##JCAMP-DX=4.24
##ORIGIN=UNKNOWN
##OWNER=UNKNOWN
##DATA TYPE=LINK
##DATE=22/03/03
##TIME=15:10:30
##LONG DATE=2022/03/03 15:10:30 
##TITLE=2-Hydroxybutanoic acid
##JCAMP-CS=3.7
##ORIGIN=UNKNOWN
##OWNER=UNKNOWN
##DATE=22/03/03
##TIME=15:10:30
##BLOCK_ID=1
##CROSS REFERENCE=NMR PEAK ASSIGNMENTS:BLOCK_ID=4
##LONG DATE=2022/03/03 15:10:30 
##MOLFORM=C4 H8 O3
##ATOMLIST=
1 C 0
2 C 0
3 C 0
4 O 0
5 C 0
6 O 0
7 O 0
8 H 0
9 H 0
10 H 0
11 H 0
12 H 0
13 H 0
14 H 0
15 H 0
##BONDLIST=
1 2 S
2 3 S
3 4 S
3 5 S
5 6 D
5 7 S
1 8 S
1 9 S
1 10 S
2 11 S
2 12 S
3 13 S
4 14 S
7 15 S
##STEREOCENTER=
3 M 0
##$MOLFILE=
     RDKit          3D

 15 14  0  0  0  0  0  0  0  0999 V2000
   -1.3863    0.9246   -0.1747 C   0  0  0  0  0  0  0  0  0  0  0  0
   -0.9555   -0.3587    0.4862 C   0  0  0  0  0  0  0  0  0  0  0  0
    0.3449   -0.8472   -0.1552 C   0  0  2  0  0  0  0  0  0  0  0  0
    0.7277   -2.0158    0.4542 O   0  0  0  0  0  0  0  0  0  0  0  0
    1.3839    0.1817    0.0671 C   0  0  0  0  0  0  0  0  0  0  0  0
    2.4076   -0.1010    0.7279 O   0  0  0  0  0  0  0  0  0  0  0  0
    1.2660    1.4682   -0.4363 O   0  0  0  0  0  0  0  0  0  0  0  0
   -1.0013    1.0230   -1.2191 H   0  0  0  0  0  0  0  0  0  0  0  0
   -2.4886    1.0423   -0.1293 H   0  0  0  0  0  0  0  0  0  0  0  0
   -0.9539    1.7667    0.4186 H   0  0  0  0  0  0  0  0  0  0  0  0
   -0.7845   -0.2201    1.5711 H   0  0  0  0  0  0  0  0  0  0  0  0
   -1.7512   -1.1260    0.3848 H   0  0  0  0  0  0  0  0  0  0  0  0
    0.1829   -0.9489   -1.2562 H   0  0  0  0  0  0  0  0  0  0  0  0
    0.8716   -2.7727   -0.1554 H   0  0  0  0  0  0  0  0  0  0  0  0
    2.1369    1.9839   -0.5838 H   0  0  0  0  0  0  0  0  0  0  0  0
  1  2  1  0
  2  3  1  0
  3  4  1  0
  3  5  1  0
  5  6  2  0
  5  7  1  0
  1  8  1  0
  1  9  1  0
  1 10  1  0
  2 11  1  0
  2 12  1  0
  3 13  1  6
  4 14  1  0
  7 15  1  0
M  END

##END=
##TITLE=Spectrum
##JCAMP-DX=5.01
##ORIGIN=UNKNOWN
##OWNER=UNKNOWN
##DATA TYPE=NMR SPECTRUM
##BLOCK_ID=2
##CROSS REFERENCE=NMR PEAK TABLE:BLOCK_ID=3
##DATE=22/03/03
##TIME=15:10:30
##TEMPERATURE=25
##LONG DATE=2022/03/03 15:10:30 
##.OBSERVE FREQUENCY=600
##.OBSERVE NUCLEUS=1H
##.SOLVENT NAME=H2O
##.SHIFT REFERENCE=INTERNAL,DSS,58820.00,0
##XUNITS=PPM
##FIRSTX=10.81326
##LASTX=-1.234462
##MINX=-1.234462
##MAXX=10.81326
##XFACTOR=0.00018000000000029104
##NPOINTS=65536
##YUNITS=ARBITRARY UNITS
##FIRSTY=-7602022.0
##LASTY=-10318520.0
##MINY=-731907400.0
##MAXY=19959790000.0
##YFACTOR=609143.040253914
##XYDATA=(X++(Y..Y)), XYDATA $$ DIF
60074a2PMkpmNRNokOMPPkj0okLPmolLQMrj5kNOMj1j2KLKMK%JM%ojOkp%L%mmL%lMJ3J3Lm%JKMo
60006A2j1qjJ2J2RLkOMnpj2j0MLkJLJkj%jNmj1lN%kJj%MRNJNNMpn%jJmOKrnpjLJkJMKLplPPlk%
59938A2j0nJLPkpJ%njLNjk%mkMRloQMJmmmrqmNMnlJMMlnLJrkJ0M%njQkmKMKmkLLLLkj%kMKjLJp
59865gnmnjK%JPQJ2Qj%nrj7rONJ6RknnJLnj1%PJ5MoKqn%j%kk%%L%j0mNjknq%NQPOOKLMN%joj0l
59797eljQPlpoMR%nMMnJOL%op%MKnkjJJ3J1%pNPmpj0KQjMRKqj2rmnpKRLKQ%j0lLNmnjpMRjooLK
59726iLJljj1kLJQOKjMMolJJLLOPj1j0LKML%mmQKpmJOMRPJQOLj1j3knJKnm%MKJkJOoj3kjj0lmj
59658b1J4J0jqjJ5P%kkmnjlnlJNNJ2OmjpjNNOJkmpkNlnLK%pj0rnNLjnMPjo%JjMKnkKlmJ0J7Pj2
59592Ar%LOlmlknoM%MJ1Kkjrj1%kj3qJ0J4NomJ0NrjMoKQKkllj%jKMORLLl%%rLOll%noLJMJj4o
59524b7J4RmpKKLJ1lpMLNKj%PQojNKMnpLM%kmj6j2PMkKKjJMkkOJJKmnMQLJlljmrjJ2J0NPjnLP%
59456C3pqj0pKjk%JNJpjQ%KKmLJKMmj1j3jPQMpp%QQJj3j6OJ1KMLKNMjJmj6qkoP%nJ2PnmQKj0%M
59390bJ1OJ%omj1oPOoqLLQoj0MLLkmlqj0jQJ2J1nnmJJ5PrqMNlnknjJ0Llqj2momNMjNRKj0j0OJ4
59327a6%nONMJrJQJ0Qpm%LOjmrmj%PJ0Kmmj3kJ3LMJ0%JmqJmLNqmmolOJ3OoKJ0njKlJLJ0ONMpj2
59262B1o%mjkmKJLkj0mJ3J1pnMMNOkmj%M%opolLJ2J0Pjj4j6kKLPkqnNOnolLJlnjOJ0Jj4mPKPNO
59196A4LoKRor%k%jKJkQQjooLmj2QPopnJL%j%KQJmKjMJ4KqpMPMJjmqqp%KMQkqlqjMLNNpj0QRjL
59125GPJ2kj1pmnojnj1jRRKjKMqj4qPJ2nqKJ0J1pj8lRPjjJ%J2Nj1JklOpj1NJ0QLkPJ1%mkOmrJ0
59064A3J8Jj6j0Pkqj%Mkj3jLkJRNqmNmmKKmoJJmjJKOLjJjNKjJ1LrkLLmJ0J3lpj%LJ%kJJ%JnlJ
58997A4j1j0kJOLmmKJ8J8pj5MOj1pjJ%kJnJJmRJ6J4Kooj3rLJ0MpnnppqKLlQNLJpjMM%plLMjJLK
58933a%MPKmlKmNJj2jjrplmK%jJ6J1lKjj2lPQRJkj%MlkloLPLLNNkj0plJKKknrpJ6J1jkn%JJMNR
58864B0J1K%%qqjJjkNlojLRMj0JL%j2j5Pkq%OPnJj0jPq%OKnLkoONMNQOOjpJPRpoKJlrmj0rMJ1L
58797Fj4oOOmrmQOjJ1Qj%njKPRoj2j0j2%J7Pokj0j1PN%J0%m%j6lNlQPL%lOQJmkopQLj1j2pRJ7m
58735foMPJ1LjojRLkRJ8mj8j3rJNrj6%QP%lJrLJ4%qokk%L%MMpjJ3Okmlonj2qkNJ8KoNMkq%MmjL
58668a8nLOn%MKrj3JQjkQMMJrnmnNP%LLLQKQNlkl%PJ3J0JmmokLj0j3KMLjljrnj%J3Qn%J3Mrj2
58603cj4KNoJpj1MJ0QM%KNLpj0nLJ1%kJ1Rlj0roQRMRJmj%oqmqmJJ1J1mmlpJJ0J2N%LJrj5j1LMo
58541a6o%J1J7J2%j1MJ4KmomOJ0Plpkkljj0o%%%mQMLJ2kj0plJ0NrmKKK%NjnLnJKnNJj2j5lRKkk
58478a1lj0j9lOjOLJJ0J1KpoKlp%j0j4KJ1PMKM%lQOqmKRJ3Q%pl%NopLj0j6OJ9OQQkOMqkjp%Qkp
58415Cpmnlj%JKJ2Ppq%J0J1Pj1j7KNOJ5NLKjOP%m%Kljpj6rQJ2LmlOLnnopj2nNjnomONoqNRO%nK
58349a0KJRLmKN%jJ0RJkonmlnrOPrpLKLjjLJJ0OpqMK1Oqloj7j4QJ0Q%OLj5mlnoj4nNNnmJJ2Jj8
58284c6%JjJ%JORnPK3QmojMkj3pKJPJ1JlLNOoj1j2pMOJ6PoPQoj1lRLlNJ0KnMQjjmkMJpk1j4LRn
58220alJ8RQJ0lkmj3j5j2j0qPJ8ROLnPjp%kQMj1rkOOpj4nJ1J0mpnpqmJ3J5PPJ1J2lrJj1j4jMM%
58162GKOKk%JrpJOQjmj%lojljLKMMKJjj1nLJRNjk%%PRkqrKPokMlj1kPLKqnkqJNQRQMjokOopPJ
58089A1j0omommljJ4%j2MkJNLMnlnmJ8J8%kj0pJojqnJj6j1PJ2J4QnJPLKqqjJJ1J2jnLLjPJ4Lql
58028A3JOkj0mJJ2J7%j3o%Ljn%oj3L%rrj0ooNK0PKOLKpnOmqooM%mJ1PNNmj1j0JJLJ1O%lOLNLj0
57966@kQMolmmjqQJ0kpoONRKKJ7jj3kjj0j2J0J5JjJljj%LPKqkJjJ0%pjmkjJJ2J%Ppj4mjmqj3k
57902b5J5LJKqPK6J3oj3nKj0j9kLqjQNPLJNmLJ0J3Pj0jRnmQJ0pj0kponJK%Llnj0jJ3PQOMKnj2
57843A3j3KJ2J2Kj7j3JOPjkLmpMRlljj1j1o%J4J6Mkoj6j7pKNJ7Oj5JJ2NokJ1QL%Jm%OPJj1LOjk
57785A8oorkNR%j5j3j3j2%RJ1PjkJQJ3JkOmj4oJOOokNLJ4K2kk0rmnqj5qOMPPj8j3OMMJlqLJ1RO
57725a3JOJ7J1mjjjNlK%pmoJJmJlojlJLKpm%j0jNOKJJ0KjKKOQJommjOJj1kJ0jpnprJLn%LP%kn
57657b2j1kkMJ4J4PorlKJ1J1mpljj%OROJoqmKJ3J8PPkj4j3LJ2mj1rkj6j6POOKljllKJ0NmplL%m
57597a6kkKPMJj0rMLOjKQJ5kj7JLklkKlJOLjkl%MJ5PkPlj0nokjKJqnJJrrNJ5J2rj7lKjmLJ6J3Q
57533A1QMj1j8j4qMKMJ0M%KJ4LnNjLJjNpkJnRLjJmMNjrj0JNKjOLmjKMopjjJLJ2NpmjO%qj1LJq
57467@J0RJKpnnj0l%j1j2jNQK%jnjJ%Jpj7pLQJ2OKORnk3k0%J6N%jRK4NqoK%kNljmlJoJ4Pj2opk
57404b8PmKJ0RPlMLppj6jJ0QRRJ6%j0nJLpj4lMNJ6J2nj2j4pMj%J6J3rj4nrJJ3Nlprpjj%MK%nR
57345a2J3j4k0pPPmnJPKLJ0JjJ2Oj0mKKKlJpKOj2kPpJJ0KJ6J7nKN%qj4n%MOmoLMMMoj1j2JJ8J8
57285B7%n%mj2kMolMjL%n%KkkLKPK%jmlpkl%J2Qoj2MJ8NojkmlQJ1KkppKjOJ1%lkjMmpkJOKjjj4
57218Fj1kpj1JJ8Jj4qKJ5J2MmqmNJ0Mj3j0Kk%NJ0J2rnP%Jlpj0rlJ1J0jJmlNJ0J0PQLLj0j8oJlj
57161bNpKJ5KLLO%j0pmOJ0QQ%pooj0j1oMlj5JJ5PLJ2J5Mpj1j4KJ7J0LjMLrpJjj0llj2Q%nJ4lkO
57102A5LNPOMMmmKmpn%JM%j0j5j0OJ1lj8%Oj0kjlj%KL%K%rNOoKJmLlpJ0J0OKmKONKLMJj0kQLKm
57036A6LMKJ0qqlj2nMJkLJ0Nk%j2j4mpkpJJ7QkjlMRKMPKJ0J3Ojj0j5%%oLkrnJ2Qjpj7KN%lqLMM
56974FRJKQlj4oLlojJlKJ9Omlj2j2j2MJ4RMj1nQNm%jONrOOqJNnmNLlm%oj4lKLMMMOLmj6j1QQmm
56909a5mj2kJ6J6PlJJlPLqj4oJmkJ0Qpnl%J5jj8LJ4RJnJ1J1lpqp%%o%oojj0ooOPjKjjJQMlNK%o
56845b1j0mRJ1KmpOQlqOJ6pj4nKOkkMjKJ7J7LnjPLpqLKqj5j6mjnKJ5J6MnmklOKp%O%lKPQjmJ0%
56782A5j8j1JNjKNpkJ3Kl%kMkqjMMmpqqpnjlpqKPJ0J0jjNNj1lJ1KLQKmnoKNJONKLnoLjJJ3%qMO
56716Gm%KmN%rMJ2QMOlj3mNKJ%oQQpJJ0Qkqrj5qRJ5PMMj0j2KNjpqmjPQkkKrk0rljPLNLj0OJ2nq
56650a4NJ1KkQKNJ0npkrro%M%k%jnl%MJpj0MQMJ2ONLj2kJ0Omnnj1%OK%jmjJ4Jj3kROJ0Mj2qmLM
56587CnmLJ0KqoKkqLJ0jjJ4Kj2ommMJ5MkNJj0j4jKJ0RqmKjoQN%Ollj2j5%MPJ0J3NLMmOlk0oMnl
56525eLMNmrkJMqoJ4J7OKklklMQKLmmJoMNj4j6plOJ0J1K0J2nqmomlnolmonlJPJ0J%MnKJ3J4Okj
56460C2qnMOJMJ5Lj5k4j0MOOknqKJpPOPJ1Jj2j3Lnj6j8nJ6J2OOJ3J3Lqj7ojj1pJpnJ2NnJLlKM
56403gj1lP%ORKjNMllJlpJOPMj%j2j5LRNLok0j2JNmk0rMJ4J1mrlLMQL%J4PpjkrNRJ1J1QNqrmJM
56339GLKoqnpOJ2j0j3NQm%J6JkjokplMNLLR%olJ1Qj2rmj1lPjNJ0J3Rqj0j1NJ9M%PJ%loj%lj1j3
56277fKPloljlmokOJ0J4Oj1q%J1J5qj4jmnlkjkrmK%KKJLQlj7mRKkMQRJ2J2jkJjJ3J1MJlOnk3j1
56215COLrmNmlLjkJLnpM%LOMJ0kkPrj0PORRjm%NMojNrj0JJpppJjj2oN%rrjOLoK%kNLmmJ0PnOPo
56145a5kJ0RmpmopjJNNoJJj5nMjM%PJ0RJ1Pjj0rnLRmKNJMnj0lj0j5J1J7j0j0mJPLLMj1mJ0MM%M
56084hRNmjNKmlLopKjOMJ1Lj5JJPJ4%j3jRm%mqmjJ5QJ%rj1j3%J1PPmj0LLJQN%PKnoomlj0j3pnJ
56020b9J5J5J1J0kkjoolLNNkj3%J7J3LOOnj3j4oko%J0ROLj1j1%NJj2mJ1QQMJ2J3mrn%Lkpj0j6
55965Aj2lnQJ8Om%J1koKkmJQ%onKPmkkj2oL%j0rloQJ5orkJolJ3QKMkOJ1JkJ7J6j1j3kkprJPLNj
55902GlpnLQRjJMj0j1JJj4nNOMoKQQnj6nPPq%PJJj2rJ1J5Nko%MPJ6lj3klLRMjjlNJ3Joj0pj1j8
55839b0jMjmjJ4RmlJMMKLoj0kLNPQk%Opj3mKlmnl%mlmmkjPJ1RlnMKkKKonjKNnJQnnNPNOmkOJQN
55769A4rn%qonj0KRNL%JNLMjj3lJ4RNjkQLj%j1j6%KKQQKKQKPJ2jj9k0JJ1%JPNkqonj2%Kj5j2K
55708b4J6PNJ6jj1JlpJKplJj2j0MJ3J4MKJj0j0qKJrPLKJ8MrnLMQLj2qqlkMJ4pmPJ0O%RJ2Plmjp
55647B3mJM%mpl%oj1j1nlNPLJ2MmlOKj0J%j%j4oRlpJmMOMM%M%JNlpMQnqn%%lNMKJj2j3OJ6PjPN
55581HKQnKOJJ0j0rNNJ2joLNPJ1%j4j3j2kOJqk%j3j0PJ2Nk%jnJNj0nL%MJ7J1j0%mq%okNmj6mJj
55521b0J0jmkj3qMKJ0J2ponnOjJ0J0kLkMR%lkpJJ4lj1NMqnJNLMmlLqoLkkLPJ6PKNoj6j8lPKPJL
55457@RMLlNML%j0Omk0pLQPRnj3j0j0mpkJ2J3LKJ3%lM%lnMMQJ0orlkKJ1J7Prj3lkmJL%rj4rKJ2
55396@J4K0J4Jj0j8qJ4J7rj6QQk%QN%%mkj0j5pKjnOLm%knnokMLOoj3jKJ4J1oj2pNnj2mmqJ1Qrm
55337c8NMJJ1J5RjqMnj0klnlPnj0MO%mLLpmmmRQlpOPj0%J0Mj1r%LJ8J4POOj1j9J3J3jnmN%J3J5
55278C6qj1mj0mJ1koPko%o%MrqNMjJKNKj3qJ0J0rpmJQoOK1J6Lj5oolRjQJ1lmLJ2RMnj6j6j1KJ1
55218A1Jmj1j0kMMknljonPJ2Mmoj0LJ5%kLPOjkoLJ2komlnjJ6J7Nrj0JOllQnj1mjOJ0J3Rkqjlp%
55156A5jKJnorNJ5LqplMJ%kp%mj4j1kJMM%RJ0jkKjprljrPK0K%RKnm%J0J4MlJKpj3pLkmmnONjPM
55090EpPNoQMpj4qOKJNJlKjORmLNNnj9j0rQJ6Q%rQJ4OKjppKmj3nOkrnlljMlnNJJNORjlKnLnj3L
55021a4QPJ0JlJ3Jj1j0qNJJKljnkMRJmPNljJ2pj7qPJ5kmLJJopRPrj0%MmKQMLoLkj3oKjj6j0LJ0
54959b4Q%kjJ0LMMmNNKjLJ4J0mj2qpLP%%jjJJLJ2Lj1j1pKKlmKOM%%Onj3qMJ0kKqnJ0%jlJOPNj0
54896IqjNLKJ0J0J1Mmj5j7K%mJkJLoj1%LokNNKJMrj2%KmjJ2J0mkKj4k2oJ6J7PKmj5lJ1OlplLkl
54835b1RNkJokJ0LLPp%NMJ0Lkj2j1oj1KJ0ORKj3lJj2j1nLKLOnj2kmj2OM%QJ3J1jmrqoKOnNNoR
54775b5J5RLkppJRoj0MKQQnoLOkl%JljJ1RMJMKj5j0nkNK%j1j4JO%LRpk0lQMPJ0mqnLRkPJ3LNJ2
54712B4J2%lMPKkj5k6j1NK%KK%PJ1L%qj1%Jl%lqKJ3PjklqK%qPNKjmP%pqjJlkKO%NLjNmoMPOkp
54645Hj0lLmo%NMqj7lJ1J3Olj%kmonnPJ3QQnnPNPMkomjonmnLQJlloJKnnJLPJ1KjkkLLJ1lnNqrM
54577BJ3%pjkkolmrkLNj7j4J9K1QmqmKNLMknjPRooKlnkKJ0Jpoojpm%mjj5j4OQRMKJ1J0JMkr%QP
54512cQJ0PJ0RLPmroqmj0j0KQPlkQLnOOqKJ0K%rrKpj1olj%MKkMJ7PjOj5j9JKrr%OOKLOPLkpqOR
54445A1jONlLJ2O%%jnj0MJ0Koj3nMLpkNkjl%jKoj4KOOnoQKojkjMkKJpLJ%oLJ3QJ4OmrkNklj1j0
54380@lJJj2lL%MJomLJ4LjJ1Mknkjlkj3j8NJ5mpknkMJ2krlJNmqkOPJM%OJ7RmjomJ3Rolqrj0j2j
54316b8LQJ1RMpjnoJMLj2%J1RNlnj1lJ3J2M%joJRQmj7oJ3Prj0rLRmk%ORjnNQKj0rNOlMOornLP
54252A1J0J7QlnlNknomJLJ1kj1l%lpjmj2j0JJ2Mo%J2MnKjnOJkLlookJ1QKm%PLkj0jj%J2kJjj7n
54190ekorjPPJ1MMM%%mkNQLmlk%RNmlj1nKlrj0JJmpJQMJlK%jMMMkj1nJ2J3NMpj0OJqJL%KjkkMK
54121FokLoojprjJqMJ5Mj1j3LJ4PlLJ0Nnj1nPJ1Jpj0p%jlLN%j2qK%mPJ1J2RLLllMMomRklPMjlq
54057br%nj3lJ5J1qmJ4J2JJPRnoOpj6q%MJ1Pj1nPMj2j5JJ0QR%qj2j2J0K1RlpkKNJN%j5oLLNqnM
53998brj6mQJ3LqoJkrjJ3J4PP%qLPmqLMjlMKppj1mLjPJ2MkoKJpOQ%jrj1jJ0Mo%lMJ7lpjLJ3Lqp
53933CNQnnqnJ4jj1oj0qJNJKOLNJ1LKQolPjJPJnjJLprJJn%J3RkpqmkQQMjkKOMrpj0oJ5J0Lpk1
53867aj6oMJ3%qJJ1J1nnPQOpj0MJ1J0Omj3oRJ0K%nqoj6j0Mj4j2PNKNLmjllMjo%MOLjpkOQNnlPK
53805dJmkJ2jj8%J8J4KJQNNjolLRMkj1j3oqrnmrmlmKOPjoQQjNoj1QOllPJ3O%j1pKJJKLMJ6J8Lq
53741C4rj5qPnoj0pJ3pj6KQJ6Qj4pNLMQNj1j4j0lJ9J5%jjJK%nnojJ0Mrj2JNLLML%JqnpqRJ1Pkm
53680eMMK%LPJ7Nj2mMJqloj3jKK%mj%LNMKMQkp%PMpjPPKkJplkkJ1OklJJmpmOkplpmKnj2nopkKP
53610b9NJ2RqNNlQJ4Ol%Lnj5j4qNRlKQjk%Mlnpk1qROPJkpqKQQNnjRRPQjlMQLkkl%%JMLKj2k1j4
53543a7j4jJ1%jPJ0NojPMK%jJj2j2MPQRKqmRkoPok0mRJ2MKkj1on%RJ2PKl%J0Jknj7qLprJ2Om%k
53481a4rrJRPONqj5K%njQJ2%lkNLj1%MRJ1lLOnj2lPok1pPJ0J2J%PRJ1%j1q%Jjnm%rMJ4ONnlNqn
53418cLLJqkPJ0J5Nmjn%J1KnoqKJ1kj1q%OJ1LKJqpnkJllnKJ1O%lkklm%Nmj2olnMJ4Pj0j2j1kJ3
53355a9J1RJ3J8Qj0pOQnj0nol%kokRO%%mlkqNJ3LkqJJ7QrrqnJklMRNpmJ%nj2j2pMRRRPJ0kj4%R
53292A1jppmNMj1kRK0Mj4jKKjj0roLPPRLKKonmkNkMRLOMqj6nknNkJJ6Kj4oKLkkNPMM%pnnnjlqo
53225b4POKLnj1j0m%opKQJ6J5KJljNn%opMlKJ4QmooOQqlLjj3j0l%J5J5RklNlj1LJ8%pkpKljPlM
53161BLkQJ0Lmm%Jj4nOmmKKnmkmPNoqNR%MKpqNJ0kn%mrJNRQjM%qj0lRKkQPqNLoNlMQkNRNKj0j7
53092A2oRLmknkLrj0lkNJj0%lrk%jjjonMRKmJ0Opj2oJ2PKOLJ2OplJlkJkpmQJ2krNPLoj5LJ4J3L
53028A2j3nlLQj1j1RJ6PkomMJ2J3nj5kpj0llPLmLNOnj0oqjM%Omj1QJ4KnlMPMKNPLj0rNQJ0%ok%
52966A3PkLOjKpmKL%k%J%lkJqj4j0mmp%kpLJ0PQMn%RJklp%QknPOmpp%J1L%PJj2j2RRK%ppkPPJK
52898AN%rqkqkJ0LMLLRRMnMJ0qqmJ0J1jLqk0j1NNonqKJ7OkJLkqJOLMjmpqkJ1RJ%j0mJljMJ2np%
52833CjjMRlK%oloJjjmojKNjLOmJROm%LkLNmkN%lj1mMlOPoj5pJ2Lj3j5j1jPMkonJJ0mj4JNQJ1O
52766a8lkMlLMqpNJ4MljPQ%J%Mjp%PNNLj0j1NR%jjoj1lJ3J0pj1LKrpnkjLQQJ4RJ0Pj0j2lllJ1K
52704A9j4PJ5loNkj3kOjmjmnKmqJjojOLkppOQRJ1jkolPLLojKojjjllJjnkKOQLnj3mJ4QNNj0rJq
52636a6oM%M%OOj0MJ7J2Jnm%kpj2j0KPPjnMMQlj6pjJkMLkRJ8J0kkKkolJNRJpKNomORNj1j8lNMK
52572A4jJJJPkj2lORooMmnlJLJNJj2j4j0kOJ2J0%promqKJ6Pnnp%J7R%Kk%ROqj5j5mKnkonKLJjM
52508c2%n%LPMjpjPJ0J6Omo%KjJLL%lj3j6knMJ4OjOOmJqj4MNJ0J2ooKj0oRQJ2J5Mj0oOJ0OJJl%
52447C4kKNrmjMpj1%j3pnNJ4jJlJJPRqqj1j4%OOJ0J1Qkj5rKQJnmj2KNlPLqj5%J2OkmLRLmPJ6OM
52384C1%%Llnoj6pLKJ3Lrmpq%OJ1PJLjnMLMLjjj2j4NOj1j5jJ2J3Nmj6j7kJ0K0K2J6kj0jko%Ljn
52326A7%Koj4mlnLQJj0onLMqLNOQLRljJ3Ooj5j0lMPQJ7kj2LLLjKjj2oj0MK0PokJrmLMLoj0mNNQ
52263A4Koj2qOJkK%kp%NKjkJMMMKj2rkppjkpjJ3J7NqjJ0knQrj8PR%lKMpoMJ0MqNJ0RNpMJqJqnJ
52196gRJ5Lkj%mnNKqpppOjoj%RPJ4J3oorpKjlJJ0J2lk0lK1%j0Lprnj6oOLPMoj0pJ8J6jNrqJ0K0
52135A3J1j2j2%LjojqoJ0LpKNKkmj0ok%PlkQKMMNRKKJj6j0J1MpkJkJLpj1oOJ1J2J4jlQppJmjjn
52073gjJPN%qj3kJNJ1NoqmoNQMJ2KLJ3ONjp%j2j6%POmjppOj3j4QJ2jj3rOJ2MLJ%LKJ6Pj8lPNLl
52010A7nnj4q%%LpoRQ%ojLOLj0pMQL%OkokMJ1LjkkKopL%JKkMJ0kj5lOQnk3jRJmlJ2QJLOLlkj0K
51944aMkKj0lRJ0J5J2KJOJ%mk3k2KJ1Jpk%q%loKKJ0J3J2J0nqmn%J0lj4kjLLpj5oJ0LjnlMmNLnM
51884iojJ8Oq%J1%MPj2nNkLJ2KqKJ3J1lqokRJ%kq%Kj1j2MKOQoLK%%LJ2Mlppmj3j6rMJ8Lpnj2mO
51821a5K%Lnj0%KQJ6NJLjklj1j3JJ7J4LllPML%nLkoomJJJ0J3%j4pnroqMNLJlOJ0QLOLj2k2j5N
51761a9J1nq%jLKjKKJONkMOJmj7nLJ1QkRjmJokM%qqnjKRMnLkom%koKJQLpj%JKjmOJ0qmNOQpj3N
51692a5NqrJjrMJ0N%nrj2LJ6J4Qkj0rjJ1J3pqPJ3J2ooNKRMrln%JKMjKklooLQMKkk0j2J1J1%qpN
51630fQkj1nJMRJ0%mrmMmQJ2OMo%lj4rjPPQKKMrj1j2mkj8mJ5QJKoj3JjnNR%j2MJ4Okj0j1jJ0%l
51569c1MJ6K0lj0j2nlj0%OLmjJ1J1J1RJ2Ooj5rJjNOKJolQPpmPNJkqkMrnLmllLP%%JMjj0rOLj4q
51507b5pJJ7Oj2j4kJ1OjLQPOLLJknj0%OKJ5J1l%JqrjJ3J4LRRkn%oj4JmnjlNKkpnJ0Qoj7ql%KO
51446BJ2mj4j1qJRJ2RN%NjlNonNMlmMlpoMJ4J1Lj2j3jONOJ2jonqNJ2PknJ1RMKj4j4qolLKlMLjj
51383A8rnJ0QNOkj0kRPrqmj4qkrnQJ3%j6nJ4J9Mm%k%poKqkROJj1j1MKrKJ4Kj3pPJ0kj2qonOQjr
51322c7JJ2lj3nknrOJ3JJ0RnjLJ1J0koNNlNLkLLKO%LMonj%KJpmoj4%Q%mNOmqm%PPkqoOP%MJ1k
51257Ej9kPKQnnoj0MQJ0J1MmKMnpj5mK4J7plQJ2J0lj1rjKkLOQNj1j3mnlKpkMKLPJ2QkpkJj0pOO
51195B0kk0pOKMrnlroKJ6J3lqMLq%LMkMJ1Jkrj0kMKnmJKNJ3ooLj4oOoj2LJ1QNKJlOPjjlPpj3M
51132iJ2%j3oj0pMJ0J7J0%l%%JooRJ1J2ok1qkJlKNNO%Jj0kOlLQJ0jmjmLKmLL%L%qm%L%qjR%j4k
51069gRpmnrLNJm%MKMOJ0J0JolLmj2pkLrMK3PlqrKJqpJ4J3j1j3oLPQJ2lj0OM%KnlmkPJ1J8LlOm
51005C4ljJJ4Lrj0KJqKKlkjMKj1mJj0oj%%npj0kRNnMJ3%l%RJ1oKOJJ0Mljkj0oPNorLpnPmoj0%M
50941a0QJ6k%%rNJ1%MJ0knmJj0k5jK%RPJlJl%PP%j2OJ9Mj5k0npnRKJ0kj0KmRJ2lmjOJno%KKkkK
50879bj5rMJ0J0%pmkj0mlOJ9J0J4Rpj0KNKJ4Loj5j4PNmpMMKKrmK%POno%pqNOp%Kmnp%%km%MojP
50814b3J0J3Q%oppmnonnjKPMLNn%MPNlOjoomOnj0LK0J8rj5oj2pJ1PQ%j4jRKpJjrLmrjPR%KQJ5Q
50750G%jnklkQP%nj0%LkPOrjOkkMJmnj2%K0OoL%ORlJKpnkL%OJ4mp%K%mKpmMjklklPOoJmmQpj1J
50680gjJjJPLj0j2KJ1J3O%LJJ1Mj6KQjkqMK6J5jKk%Koqj2j5JkJJ0Lmj8onj4onKRJ0%k1j4QJ7QJ
50621eMPPj%Npj5%J0LjMNNROkjkpQMj4qmjLKoj5j5j1%mmMJ0J6POJ1Llnj2nJ4RppOJ0nj1j0lOPL
50560Coj5opj3lMPNQQkjKj1j1J2J6MnjJ2J4P%noplNLplKMkk%oKkkOQJKJ1Jj4j4mKoj1qMJ0LKRl
50498ij2%Lko%KJ0J2%OKNLrJpoJ2J0omLPJ1NNPROqj4pM%j1qppL%qnj1nOJ2J5rj8j%QPMOlJMORJ
50435B2Nlj1oj0pjjJJ3PqoKOMjjNj0j1lj5kJ1NJ5Lqqj2PJ7J1MkKNRJ4qj7mlMJ2mj4nK%lj0oP%n
50376a2RNKPjJMok%mkoplMLPQlnqN%qNNPMmkm%lj2oJ6K0QnjOrrMOPRmj3%QPjr%J2J7J0lpj4oOO
50310C9OJj6j5LNOJ6OqlJ%Lpj8rjMNM%j0pk%N%njj1j0JkPNj3pONpnkrNJ1NNlnNJ2Mqnj0j0Mm%O
50248b8JMMmoNJ4Lj1pMqnRNKp%R%MMKKJ2J3j1pJoKjLJ5Olkk%J0Qj2rjonrORppj6mQorkJ2J0pj1
50185c2jJ4J3OL%jkJ0PmOKjLmNJ1MKmkpj0noolJPMjOMj4j9j3JJ5J2%mmnJkkRLpqlqj0NOJ1J9RM
50124A5Jpj6j9j2nQMJPK%pnMOPJJ0Pj0j2mLlm%ROkPRPMJNljlkJ5Pj0pK%%JMRJNJqjJ%j4j4mPJ2
50061A6oonoMKPPJlqpjjrpoQJ8OLORRNrj7JMj%nJM%J2QroNMrqKNMPP%N%%Kmlj0kKj3j1kpmJOQn
49992ao%NJ0kkl%PKkj0lJ0kj0oMMpmnlJ5J0kmJPNLmo%lNOopNJ8Pmj4j5mJllLljM%JLOrpQj0%Np
49927b3pnLJ1J6MKPnmLLOP%mqmmj6MJ0%jj2LJ5Jmol%OJ3PLj1pNnopmMjOjrJ0J1o%J4MppnnnMJ2
49865BJ7QqprpkjJ1J1n%OMN%oKOj1k0j3lROLRPJ1J0nj1MJj1NKj5nOMpj2jRjj1pqJ0J8njKrok%l
49804b4%LmMJ0Jj0lPOOknjkJPJ6MpkpLMMnj2KJJ0J6Jj0mmqJjnKQQ%olNmjKmKlj2j2qrJRJ0J2oq
49741b6QJ2KokJQJ1PpqORNqj0QRpqmjJ1npJ1ROoj0qj3%J0lj2MJ2mpnMNJK0J7rnNpjNj7mPprkJk
49680a6JmjJ3LpjJ4J5OknlLLrolMJ5Mj1j4lKQPj8qJ5QMOj1j3JlnMjkJ0OPLj7j9k2j1MRJ3%j%oO
49622b8J2QKnj2lJ4J1%qlK0J5jLkklKNmpmPJ5J0jljolkoqnLMJ2J4K%MPJpnNRopJljMOmrMQJ0K
49559F1j0j0pQPqkNKpj1noj2j6k0njkMJKRJ9Okpj3PLoNJ0Jj5j0%OJ2J2LolnJLKJlQPj1rPJ1%K
49501A3J1jjjj3j1oRN%K%LKJnJJ6Oqj3j3qlJNPNpnO%rmnj4JJ5J0PjkjMJ1R%okjmJMRPJNLjP%j3
49438B9nORNlj2k0j1%JLmkOlqojJlJ2RNLnJnoJ1J4l%jqMJ3J5KkP%%Kpj0qm%nqpnOjoKLmj1nqkM
49373b6%MknKJ1J2RJ6%j2kjm%Kpj3nPlnLMJ4J8nj3pj1lJ3J1%lNJ1P%j3j4Kmj8j2JO%JJ7Kj5%R
49318a6J2J5Nrj1mJ3K0qj6j0pJ0jj5KJ0KjKKJrlPjnmn%ONrnJ6J8P%lqmJ0Jj2pjoqLMRJ0kpnqj0
49260c0%QLpnOOQjj4pJ3K5%qRJ4J1J1Lpj6j0qj3KQpj2%%JJpkKolKKJnlJ1J5Lm%%NqrJ9J1nnj0
49202a2J4K0Mmj3JJ8QrkKKJmnjLlrkKrnRjKJolrnKMqmJ6J0moKOlnKMJ9J4JKk2j8ON%pj2PJ7mnQ
49139A2Nkj4r%Krj4JLl%MLNlNOqj0j5lOJ2K0J5O%%j1kJ2llJJ0J2pj6lOjkLOMorn%J1J7Plj0j3
49082A0j8%K1QlLJjKMJj0j3LMNkj8MQlJ%rj1jKnJLlOOonN%j0%k%QMNkrnLlrkJnmLOJ2J1J2J0LL
49019B0%LkNJ0n%jKmj2jKMJ0jj4PJ7J0nk1oj1nKnJjJ5K1Pj4rJ3QPjmLj%mj4j4jMj0j1nojRJ2Nj
48962Goj1mJ0jj0JOR%j4MOqmj1j0MJ8Pj0JQMKkmKPqj1LJ2J3O%rrJ1J2nj7j2J0K0Jj7qPJ0J0jr
48908A0j5j8mJ5J5knpKJ4m%Lj2MRJ1J1pLNj3j2%J4J1Jj2j3%j9j5MlrqMPjQJ1PPPjKPKpmJ5J5lr
48853B1qlkJkLNj4rJ0OJNRjoppJNNqj1KMllNLKNPJ2%rkJ5RjJoJ0QpmkMj3nJ0jNPKNJ3Qrj5plmp
48788C0j5JJ5J1JnJrknj2jp%Njj1j4QLjNKLLJ1J0j2j4pmLLJjMJ1joKLqpJQRrj1KQJ0RKokjRJ3%
48728C5m%lnjj4j9jMJMJnk%JnnOknnj0mJ6J3jnj2JPjKlrJKlJLKOJ0RqpJ3J6knLMOmqLQLnj2qKn
48664emNmq%%JMOQRKoolJ0Nq%onKkoj1jJ1P%JKkj0j0%OQoj1J1PjNJprLJ7Qj6j1LRJ1kj0rOP%L%
48600aKM%LJ4OpqnOLlomlj5JJ4Npqj%nj2JJ4Lj2oROJK%pqLQLMRJ2J0Ojlj3j2rj5o%jNNMOJ3Rp%
48537FPj3j4NJ1JlJ6J8QKnmqj0jQMmoolLlMJ4ok0lPQL%MMJ1%j2j3j2rlLN%j0mMllLOKjkMJ2mj1
48477a3MRQQKoj2oMOOQKj7k0kNJ1QkpnjJPJ0NkJ3Mk0oKJOJ2J0%j0j9mJ2RnorrJ0K%PLPOppNJKO
48415B7jlk%qj7oNJ1J3mj5KNopnLLKPMppjkqKOOJ4kj6jPMLMMJ0RjnlNrj0%%MjMOMQkpjjj1n%j5
48351gJNnmoKJj2mLJKMjkokJkMJ2J3Lllrj7porJ3J0j3j2kQPjPJ3KrokJ2K1NommpllORmlJkMKMJ
48287iqOJ2%j2j4KJ0jjNK%%RJ0L%j5oJ9J0KmLQrqpkrj0%MN%JMlKQOJlkPQkJnnRjp%mJJ2Mj1lQO
48222B7NkjMLJ6Kj2m%JmkJkqj1mJPOlj1rqnnlOMomqj6rLKkKMj%NlpMRJ8J6JMOMlj0nJJ4Okmn%
48158Cj3rJjjLMllrj3kJ2J4jqljMJ0LKJ1MOMj0rJNnj1MNj3mJ2J4Pj0ljpMOKpj3%O%%mJPO%qn%
48097a6J5K1mplnqlOJMKl%jqpOMKJ1OOoj5jMJ1J0mKLqoKPJ0J3J7Nj0qj2j6nRKpqpqjNNJ1MmMj2
48036Ej9mQNKNPKmLLRJ5loLPPkj0kmnR%okNPj1j3mLKjnokmJ4PoOkmoKJ0Kprn%j0j6j0rjRNnj4r
47972f4kOJ4J2lj0LPJ1RPPkqj7lL0K6Jo%ko%J1Kj5j1oJONQknOqj5pmmnJQolJ0%ono%LMMLRJ3ml
47911a1NmkllJMLjMpj4JPORlj1KKnojkpQPPJ0R%k1%RmJKkqj%ojNRNPOj0j3qMNjkj1lMMJ8J4Pjo
47845GKKjMMKQKj1qmPJ4jj1p%jkKNJ0%j4j3mQLMOolorLKLL%NJ1KrmROoj0jJ0O%MKlj1j6j5%J4P
47783Apj3k%%M%NJ1LoKOJ0J1mnkJPKrk0qNjQJ4mj1oJJ0J1LlmLJ5J0mppkkmLOO%pormQJkjOJ6J
47721C0j4j0knl%lqj2KONPM%lNmqQkLKj7koJK4M%RNJj1j4pprMK1J5L%jOJ0MJmljj0j0mklkorJJ
47659b0kMKrkMMNqpJNJ2JnkJ6K1LNRJj0%MlKNjj0j2j3oLLnqkrkLokmJKnJQ%qKJ2Mj2nlpkjJ1QK
47594b7jmJkmJkj3j0qjJ4J5J5RMN%lMPQ%pRJlONJ3Mm%krkQNmj0Pnk1nMK0J4rj1mjqp%MOKj7k4K
47533c5J5J2LjqpRLpmmnqlQOj1MK1J5%pLPJ3Jj8lLqmJ2MlOPRQjrj1plkpj4j7j2omp%J0OQPJ1J4
47474a1J9J5j2j1Ljmqopk%OJ0%NKj0lKllnoLJ4NJNqj0loj0NJ6PRRMkjKlKJrnlKJoMMj1lQjKQPp
47410Aj3j3LRJJj2r%PRnlkj3j7pQPnjQLRO%ko%qNJ9J0JrjJ2RMonLNJ1RjlojQkmPJq%%l%rjkpk
47345a0k0j9kPRJ0PmkopnPJ4Jkpj0poJ%PJ8OrpJONOMlnkLOmmlmOrj9%J1O%KJ0J3J7J1krKJ1LKO
47284C1Jljm%Olj3rlpLmj9mlkMNmmRpmQNK%KmQK1J1kp%OJ2QMMorrpLLnrqponnlllLOJ2%jJ0J5j
47217Hj3NOkjNOjQJ3Nj3j9j2j2j0oKl%J0RJ5Oj1jMj2pOPMnRJ3nonj5j1JjL%pOJ3Nj3rLMJ1J2J1
47161A0Nqj1j1jQNLPlkNOnj5%K0J7Rjj6rjopqnjjolllPQkj6j4KJ1J5Rmj6mJ0NMKMPKnnrjQPOlj
47099dOj0k4rPNRJ6lrnpJoj4pOJ8KlkNJ4MOOOJ1PJrj5j0J2J3K%oj2j0Mlp%p%JLJ0J1kmPjKQJ3
47041B7J4nj0KlnMO%npj0JMj0mKMOpnQJ3MokOLjQRMnqmLLpmQ%m%%KJNKj1rmkN%qlK%RJ6PjrpM%
46973B6pmklpJOOOJK%j2j7j6K%jJ3MjKKLj2j2ljOOJ0J0nqJ%jMkmJoKN%Mmj1jLJKNOMnnLjj1oOK
46909a3J1LmPj1j1PJ3J0KKJ0Pj9k0lNJ8J4%mmNmj5omkPJNOlKlkPLqj7rpj0lkmPKoNJ0J0J4QmkP
46851HJ2J1oj1OOJJj0j0jKpj1nq%NJNNJ1Nj0olOjj1JOjjlrk%pjMMKoj4kJmNMjNKj3mJ2J1NrpJK
46788c4OnnJNJ0PKlJQOLrrppjjnJPJmp%jpJkj2j9j4ORNPOpnMQJ6MpNJ4PKMRmj1JKlqnjLNlJQJ0
46722a1KqkOKl%qj0LjLNJOLknJNlMKjJ2LnOJ1jj4nllnkJ3K0Mj0rj1lQLoj5rORNlnJKnLJj1j0nL
46659d1L%lPLqO%%J7Mj5mQJ2J3POloNJ2J5RMonloLMjokKmrj2kjJ%j1oJ3K3J8NmjorolPMjjKJj2
46596A7JRJnj8j5lJ1J4OKlkOJplNnj8oLLJ2J3%j8k0mjkKJ3J4lMNj4qkroNJpMJ9J0Lkj0lMlqJ0
46539gJ6JJOPJm%nKJ4LoJNJnj0%Kpj0qPJ3JnOJpjmnomlnKM%%JO%mKjJNrj0OLOJ0lkljNjj3j4L
46474b1J2Qnj1LJ0Mmklj3j3jNkj0nQJ3J2Mj2j7j3%NOMrLK1J1kMRPJ1Jj3j0JM%JOJ1J2J4nk1qk
46421Hj1j2lJ3J1omppKqnNNMKlpnkj%K%KK1J3KLpJRPOjoqrnjKMJ%lj5j0J0J4NJkqj1pJLorOQLK
46356a3pKNj3jRjpqOOLN%PNr%K%J0J4J4QOPPKpNMr%roKnJL%%ormj1kJ3JmkkPJ2NpjLj0njoonJK
46290ArnROM%kJkNmj0LLO%nkJkqmnkOLrj2%JOKjRJ0Lrj0q%JnjJMlmJrJRRQlnNJ0J2J4J1Kj4j8o
46225a0MNjRJ2no%lrj0j0j0oLJ4OqkJkNKmpoLJ8RLJ2NQJ0krqokPno%j1oQJ5kj3onmOJ1PMj0pLK
46163iPrqMKQjj0lLOPQ%j2pM%KQOMQNomJlnJJkkKrj0OPklKJKJ1PKoj2POJmj3m%NQkmlLKjQOkjJ
46094A5%JMjj0j1qlLnoJo%Qnj0%mrKJ6RlJLOPkLJ5J0oj2PJ9JKJ2JnpLPQOomprjMNPjlPloNmopJ
46029B9MkJKj%mp%OOLMqk5pMplKlnklkJ0J5Nrj2mMRNpnNmqnoKMJ0J5JrnKLo%%lQLj%KNKKorqnj
45960a9LJ0jJ%nLmkPJ3J5%j0j0NMpkNMoLJ1Koqj0rj%MJmKjj0oKNQLKlj3nlKQONokjPJj3KMnkk
45897b8J3J6mqlj2pMQJ5J1L%LRQLLQjj2pPRLnqo%J0PLjkPJj5rJMJ4J0mj2pKj0j2KjjJ6J0OJ7J0
45840F8qj2KNJ3Pj3pmjMRkj5qj1j4%Nqj5mnrkQJ3QK%KKRlj1JPQ%pPJ0mokj1j4j0rPJ0NNjjml%n
45779a2lkMJ7J5Lk%jMmj3mLMK%KMJNJ3R%pj4lNQNpmjmKJnj0mJKKnLMrj4%J4PjoLJ3Npj2%LlLkp
45715AKMPKNjj7j2j6j3PQjmMRjJOKLJLkj4jOkPMPOkRJ0Jrk1j8q%NLkj0nMLKNQQJj0n%mLmj0JOO
45651b2J0PNJ3QlrpMNOOJkmpkPnj4rqnmjLRJ0molKM%RQjjj5j4J1RokRQQOpj3o%mJJ0Mkm%mrJkJ
45585b0J4LoKkj1qKPoj7pMLJ0J1%ORonJkoj0rLNJNPJ4J0jj2j4OPjl%Lj1j3oPJo%oLK0J6kj2oLP
45526a8J1Oj1qNJ0J1qq%m%PMm%LLRJ0J0KjjMLprkJ0mj2lkQJ3Noqjnloj0opoqOK5J5%j3nLoj1pM
45466b3J%MkLRMkkOOMJKJ5J5mj4ojnnKMJKrj9j1%kp%LMJ8J0MJ0lpPJ3Pjqokk%%RQrpRLqnnLJ3M
45401B9j5j4nLJ2LkMj2nJ5%mnj1%%KrqNlNJ3NLLJkklnkk%PJ1Jj%okL%JjkonNomlJJ1OMoqpkOJn
45336a3jJ2jj2LJ4J4qolnR%j1mKPJ2Qjnj3j3jJ0J0QMJoromQLj0kmkO%KJ6QkKJkJJ2JproP%JOm
45276A8j0j0nlJ2J5JrnNJ1J0NjlKjMJ8%jKoOLmQOoj5rJ1J3j%LJJpj3nooNRJornJop%J0Plmj0mP
45215A5J0J0KOOln%ppKoj1j4NJ0qJLojJ2Mj0lKJMOJ%opPLk%Knpkj0mj%MjpplPJ0O%pmq%J4%NJ5
45151A1%mnlMOKJPOlj%nLLmrokj5j3jLKjlmlk%jmr%J6Pnnj1kQNPQJokMRQnrj6j3KLMorQKopqK
45084f6J8K2JrJNMQPjMJ2NjJmnLJ0jj3lOJ2J3Pqj1llQJ6MlmnMKj%JOMlj8j4Qmj2lKnj2j6j3okK
45025e3%ko%PnJ3OjJ9J0%KJ1J1NnqOMJ2J6OKmoj3k2j0RNNOnpj0j0mJkJPlokJPMm%MmnJPK%koQO
44962allMPJrj4%KkPJQJ6%j2j8j3MOpl%KJ3LmKJNJ3J3LLOlroqplj2j2%jlLRkj0j3j3LQNjLPlJR
44900b7rj1QJnPJ5Pj1jLjQkj3oOJ5J0PmpJ0J3Lkj1nPKOQj0k2pLmMQlj0onKLmrlOQOjnLRQJ%mlL
44838a1jqj4qrmmj4nLQRK%JNOLjm%O%j%nLJ3J2OKNPJ1Kj0KOnppKJ2mmOlKJ3Jj0j%lj1j5jQJ0OQ
44775A0J0jqnJOJ1OmlNJj4JJj2lPQjMMj8j1MJnpommpkooPNklOJ0J0J0%jNKo%%kKqrmrlJ0QOklJ
44711a7KJ1%kM%JkOKqpkO%kpj3j2j4o%j1j2%om%PJ3RJ2%%J1J6K6J2JpJRJRkqOMpj1kJ1J4NORm
44653D8j3n%KkmLkrj5j7OJ0KMkj1qJJLK%jpmMnj1oMJ3NjJ1J2Kj0j3mNQJ0J6RnrnOJ4QMlj2nljO
44594B6%%JMJ1NLPJ1Lrj2j3oRpmkj7KQKJ0ON%lqj4pLnj8j5qKN%lkJ0J4Mmlj1qQQMj0r%LJ0jLJ1
44534aNjpKJ2Q%j5j7l%lj%MJ2MmLMJpj1JPJ0NpjLKlppj0JMMJrrlKOJ4J0QLjmj6j5MJ1j0oQlkPP
44472a0OJ2J6NJpj2lQK2J5kpj3rJjmLR%j6rJkpj7nMNQoj1JMMLj0mJ3RPJ2Mj1mJ%J4Mj3mPM%Jr
44414Hj3KJ1kj7j7pPROPLLjOKl%kNPqk1j3JLJKOjmlLNJ0J0kjjKJ2LJ%LKj6oPJ5Rj6k3pJ0QlLPk
44353A0kJ2Oj0j1j2qpmNPQJ5J3%j0j2j5j4MQmNJ7J2ONqqlmPlj8j0Lpj4moKQlpj0MJ2PkLJ1Kkj3
44297c9jMmJ1J4PMJ1jnRPRJrpl%nKJ1Oqj0lmpmjPJ2MLKlmmLM%ll%qkjkOQJ5NokLJ1QOmnMkQJ5m
44232E6j7j6okrj2qNJ2Mlpj0j1mROjmnJLMO%lOMqmjolQQ%J0J3LnrqmOMjJ0PrJPK%oqj4nJ5Lj1
44171gj7mJ5QRPnmooKLnkQJ2Lkjj6lJ4OOMQMm%knmKNPJnPNjNJ2Orj9j8qmNmj4mPmj0JNROjJqQ
44106aJ6koMRknjNJ6MmLkj0j4j3l%lML%PPQOJMK%OQmrNOR%rNNkloj6r%j5NJ1rqj2KRnpprLJ6J7
44042A0OpqNNppLPLLNOlrORj1rlj1lQPQoj0%oLRjLOjKOpkNrlRLNRJ0P%lmLLkJmmpj6plJorJPRJ
43973FqJKj6j7j6j1kpoRRNPOKlkolJ1KKJ6OKORJ1MJNQRLj0nRNQRqj5mPQjjNlj1j3j4mMJ0N%Pj
43911C2J2J8%Mkrj8j0NLLl%JNJ1%nlkj0nmj1JJj0jMrlQj4k3qJLNjkMPLjLJjlk%lkkNQQLkknkmJ
43847b2OJORLj4oJ2Njmj3j0%JKj3qJ7kpJ5J1jMPMKKNNJ1R%k%nj1llrkJ1jj4lnkNNJ0MqqkmnmKQ
43786a0jNQLrqJk2k8j1p%LPJ1LMJrmKJ4OjMNJ4o%K3J4J4J0Moponnj5KQLoj2nlmj2plONj8nMNJ3
43727c3J1J3Jq%qKJ4RJj1lJ2J9Nj0OJ0nj8j5k%nj2pMMJkkkl%JOJ3QnolmJMJJOJqnQJ1KmJJj1k1
43667c6pQNkj2nlnJ1KjMmMJ4Q%jjkNJ5LqmqkMPJ3N%%RLllllnPLj0njLjpLJ8J0Lkj7mJ5Jj2roL
43605fJ0QRJ1J2R%mq%N%jKLjNKpmnj1j7j9rOJ6Pljjj5j9Kjk%olrjJ2O%kjolOO%LJ2nj0J0OnKJ6
43544ANjKqjJLRoKJ3nLJ2koMKj2j1okONK%kJ0Pj0qjMOjmpknoMMK%lm%lmJ6Mj6k%j%lJQRLrlRj
43477Bj0oMOKNPjmOJ3J3jj0nj2k1olpKMlJ0J4lqoqMPOJ0PlKJ6NKPmrj0nkj1pQNnnjmkNj4j5NJl
43416c6mJ1K1J2O%qKJ4kj1qoj1o%j0nLMPPpj9lLkNjnPJ0PJ0NNPMqjK1J0KQkJlj3n%j0oMJmj1oM
43357a2LMjKMkookQNmkkj1pJ1PJJ2J3Qopqj7MLnOLOJkjpkrj1llkQJ1lKQQOoqj2j0JKMJ1Pj5j9
43296d2j2nJ1NKN%%MJ3J6%nJj0nJ3J5mpJ6OOK0OJnlkonj3%NmnMjj4j4qN%nJ2J3QKjjOJ3rj6ljq
43237fj1lKOKj5j4pjKJmj1mLLJ1jj3oQJ0jPJ1MOKJL%LJ1Qjk%lkknRRmklmplLnjJ2QJKlj3lJlkM
43173a2JjPRJ1RLrj6nPRPRNj2j9qJ%mnkKLpj5okPJ6J3J0NjmqJJ0OpjMj1j0KQok1j0moqjJ3J1m
43115c6j3jJ7J6MKOOLO%ppj1q%lj1p%LLlLJ3LlojjonmJ2J7JklNJ0pj0JNOJ0J2J9Kr%lJNoj5j0R
43056BJ2nj4%J6J2%j3pkrqkKNJ4Oorj1nJLJ0LrrLPmj1kPJ0KlkMJ2QMKnoj0%RNLj3k2qJqmQkj2
42996e0j1OK4J7JqnNPMlkO%PJ4K%PKKkKJ7J0loJ%jQj1j3j0j5MMnM%lKJpjJNJ2Ljmj0lNrj5nNOj
42935a0j0qjOJ1MplNRL%%pkJ0J6NjKJJJKrj6rOJ3MlkjNKRJ4kj0j8j1MMQ%plolKJKlj0lPLklm%
42873a4J2OKJ4MqnlrrJ1Lj3mMNJ4J2joqkQK1J5Nkj4onj6mKKKkOKj0MKj3mPJ3lj7kkpLPJ0JjJ2P
42814B6jkj4rQlj4mJRLj2%QOOmJJ2jj4j2qqj0lM%lJMj0j3NJ0%mNQkj0j1KJ0LJJ0QMmj1rjPLrpN
42755d3J2PojJj1pjK%mLMmkJ1RjJoMJmNQJ7J2MoJJ1MQrj2NjjpjJ2LNOlp%JnjooNnj7mnj3mqpkP
42691e1J3J1QklP%pJLLKj1kKmLj0jMjJ1LpJM%PPLQmmLJ1J7MkKJ1nk0kMmrnnlJ1QMROlj5nPMJnL
42628A6RojO%j%OKJJ1kj7lPkj%ojjLNKPOmloj1KNjqrNMKjrlj2j0KJ2K4J1mqqmmko%lqqj6j0NJ2
42564c4QkJJ1J6k%J0knmPPmKjqj2LJ2lplpkRRmj0kMPKj1k%Jlj3nKqrJ4J4KQMPJ1OKrj7j2onjj
42504c5J0LKJ0pLJ0mj5j8LNLJ1QkLJ5Nrj6j3nj0pPNkOPkk1nJ0j5oJ5K0J0rr%JKOLJ6J1OJ8PJ2
42451D3J0mj4pjj5lkrpj0j1j2jPQ%OPj3popLJ2NKLjRJ7PpkJ1rj6kkmJQMKNj3j3LKKMNLKJj2j3
42393c1j2oKkOJ0j1j2lnJjqj6j5KJ0NJ0J2KJ7J2MJ8lj2lMOnMJ6Lprj3j6lJ%JjLKMMKJ1Qj0j3k
42339c9J0J8J2nnJj0rnMOj6j8oKjlLJ%MJ2Q%kpokj1nLJkpqj1q%m%J1J0KprOQMMmrrQJ5MPJ2J1k
42278d3pqj0lkOJ4J0RJ1jpNQONknmj0j2nrj3KJ1Omj6pJ7J2ORPNlLJ1KJ1J5Kkmj8j9qRJ3J1J1L
42224A8j0k6l4k1JJ1Jj2j2KPJ0K0J9RJrqRK1J1LOqj2jPJ3kj0LKllPRjMP%rj4oJJmnJ1RJNqj1Km
42168bmJ2J3PnqMK%KjlkmJKMLmjjjPmj5lJl%Nmj2p%NLnoNJ5Mpoj6j3%jLlNJ0rj1mJPjj1kJ3J3N
42105b7JMQOljKLLLNMOKj%j0j6nKJNQJj1okmNRJKJ4RLJ3J6JnjjRnk5j7jMJjnOJ3j3oJj6rNJ1J0
42043F%npqj1oJ5J0KJ0j2rRLkpqj3OJ6JRMnjjQO%k%LMKlMMjmj0oMOkJMJJJj1j9pKJ1J6Njprj1
41982a4j2j1j1jKJJPNmppPOMJ2%j2jJ0MMPPMnllmJ9K1lj1j3q%jLO%j1nK%KlkJ1RKJ2KrokJ3RPN
41922C5QQqLj5j4QKRL%pj2jnJom%oOQoqJlOJ3jkj0qKqj0lmjjrkJ3Rnj0j8j7MjqK3K7J1jnRO%j
41862ej6j4%MolOkJJ1K%jlQJ2J1K1RkLQPj1pROJ1LjJ1J0%k0k6nMjpNJ2%nj3l4k3J0J1jkmmJkmj
41804b7jpnOMQJ8J5KKJ0JkonKj0pN%LROjqoJ2K2Lj4k0j2J1J1JOjnlmJ9J4pppkNMLj1plj5KPrj2
41746a3rQJ8Kk0p%j1ql%%QJ0KMRJ5POPmrkJ4J5J5OmJNNJ0kk1j3pr%kqnmj1%JoL%LOqj5lNpoQJ1
41686a3J4J1p%RnLkrrpNJJJ0Jrrm%MPJ5J2NJj6j0N%O%lQknL%NRNpjMNJ0mnmj0nj1k0mjmJ0J4Ro
41625@m%j9j4l%RNKMojQNNnj6j6j5k2j2J0OKMlJ%qKJ1nj7qjOJlJ4Rj1LJ6NkjQPLLNNOJ7K1K1On
41565C3QKOJ3lj7j0MmoKkopp%JJP%lpoMlmljKj4j9jPMJ1J6Oj1k0qpj3jMkokJjonJ0K3J2Llj3J
41506d0J1RJ0QLj2pMq%J2%LRjjroLqMJ3jj9j3O%lLLKKRJj6jQj2j2NJ2OnJ0K2J2Q%%J4PrOJ5j1
41450D6k1lRRPJ0Mpoj4qLqj9j9nO%qnJ0MkRRJpMK4K2RjoQJ3MjNOnqkJmj2j6j7q%kkMjjMMLJj2o
41389Clj1nlLJ3J0KrMOPjoJ3Jj1rjJ9J4kKJ1qoJ6Qlpj1lNJJ5K0%p%Konqj1Loj1rrj1j1j2j5MJ2
41333b6mKJ5J0%%jOJjpj1KJ2OJ%mmMMJ0J2jj1j4ojKJ3J5Oj0KJ8JJ%j1roonnrj0JJ5J0l%pkQklm
41274fmnqKkoKMJ2Olnj7rJlrnLOMQOj0j5mMJ7J7PooJPJ5JNJ0j3k0pQONPJ3J1LNJjJOKj0qljkj1
41213Gj4jN%molkJqJJ6QMKMPJ0Kj2mQknQj%J0jmrKQj3j2k0j5jqkqj8j4%P%QJ6NJknQJ6J1M%MP%
41152dKRlj5j3jJ2LJ1J1j2JKlKon%JlJ3Qj3KojNpnj4j6j5j8q%N%QRLMRQrmQko%J4K0J2KnmkONp
41092a2j1j0JKKPm%knQNQnj3J0RQOjnk1k0j0PK2Rpj0JJ2J1Jo%J1J1jm%mlJNNpj8%QomkNJ3J0q
41034aj5KJPRPJ6%j3j4kQMjj0nJ1J3J0J0OlkmollnrpJkj1pjqmNpj0J0NkKJ%KNmkLQLj1oql%pnO
40972d6J5LPPLK0P%J3J2pj1qj3kMJ6J3kKlPK1J3jmJKKkqLKj1jPlKRJjQLol%pj5LJ0lKQJ0J2QRO
40913A14Nlk6j5j1k2qlMNnMjk1k0lN%MPJjmrmnj2pK%j6nRNnkJ0moQJ1J9J4pmJ%PKJPnnJ0Nj1j0
40855@jKj0qJJ2Rj8kMk4j3QLqLK0J8J1KpKNr%Pj1j3opj3MJ7J0J1QQQKpj0MRJ7QpkqmMRRqmj2j9
40797DomjlokprkJ0J0PQJ0mlRQOnJJ4QLPOKJ0J0RMj2qj2j6k1j6OPoj2j4j2rkOLlnqJMmjLQQNkL
40736a5J2kjLLRnj5j3j5j5lJ7J6kqj1j0pljjj1j8qJQK7K0JkJ1J7QMlj1olKQQKO%rJNoj0J1K0MO
40681A6MjkoJRJ1Q%jNL%oj6j4oJK%mLJ1NLkj2nQOj3qJ0PpkJ4qj9j1j1ppJqoJ2MORLknQJ3J3J9P
40622C3oqpPOj4qKjjKKkkqmLLrqkrj3mJ5J1NKl%op%PMNJ4NMnj1j3j9qmj0%J2RQNrpJmj8mRRLj2
40559f0j3mMLJ0QNJ9J0kLJ4J3KorKnkJ3kj6lQlkRJnMlmKj2pOkplmkRJ2J1Mj3j2LMJkkJJ0K1J3m
40501A6%J0Pmj3qJ0J2jlo%%NOqNLqKmj1n%LLJ2Rj5k2qPRRPoj3nNKJ5K0LlrJjj4kNL%NLl%kmlo
40440A0j1j3j1j3j1j1j2%MooOJ5%qKOKJJ1J6J1kmLj4j2J6K0%nMmoJNJ4J1kNLqj0j6lJ0P%mLNPN
40386A1Mpj1lKJkOj2j6J6J8M%J%NMorJJ0%MJ3PJ0J4J5Nj1j6j1j2pKl%koj0jMMJ1%JRkpKpj5%MO
40329A8kj4j2PPqNnj4rj1jNNNPlNJ0kjoolKK0J6JrmMjmjjooKOLopJLMJKmj5kOOOOJ2Kojml%JJ5
40264A6K0mj2k%jMmj0qj4n%lmj0onrjPmmMj2j2LRK0J9J3RLONJNj1j8pORnoQOj2j1oj6nRKoj3mk
40206f8%K4J3OJ7LKPJ2J0kLN%plJ6Qj7oOkonnkklNJ4Opj8j5jkj1rjPQ%opPQqJKnmrJJ5OKNPLlk
40144gKjnoqrLMPJ2MjMoj6%MjKLOj1mJ1MP%p%NQL%jjRKpjnMR%K%JmlRQQQPLKk1k8nnpNJ3R%nj4
40076aj3jJ1J0OQQLmopJ0Opqj1MRNNNNJmj1nlJRjjJ1Ooqj6kJ1kjpj0pj1%%o%jJ2J3lJKkkkPRQl
40014A4m%j1mkJMJKLJ0Jnl%KLLj4j1NJ1%j2RLj6oKNRMomML%KJ3J2%j5j0J3J1RMKrk2lM%Lkklo
39955Bj0j7j9j1QQkKNPJ4J6J5J2nkJ0JNLloqJ1J3ONj0k3j2Ljj0pNJ3oLK0%lJ5J1Qkj1mQJ6Rmon
39901F7j0j4rrj3JPkLJnoomjN%jJ2J2N%ojJJOj2j4KmJJJMj3j3MRjlKQPqj2LJ3jmPj1j4j1j3qj3
39842e9qJJKJ7K1Lnnoj4lOmmj2nOjlLJ3NolQNj1j4j0LQjmnOJ6J6J1J2J3OPKnpmORJ5J1%OJ0J1j
39785E9qLMj0j3j4j7k0j7j0plmkJmkprk0j2PNJLJ1J0PJ4J3J5J0PLoJLLOKQJ1LjMKjNPjJnk2k1j
39729hjj5j1oLNkMLj1lLJ1J7J2PRPqj3jJ1LmJ3J4OOj1j1oj3j6nJ3KMJ4J8J3nPJ0j2k3j6oojpll
39676a2j0mnKkMJ7jOPKQrJJ7Lj%JKNPKopMPmnj2j8j0JRNklKKJ3J8KOJ0PNn%koKPJj1qkj0j9j2L
39615BjnjMMKJlkj0q%o%%qKPOJ1Rrj9rJRORRnLOnqmnlNjkJ2J5Nrj2LKoprjKQQjMRJ2QJKKJ6J7k
39548F1plLNm%Rkj0kl%MmOMJQmorj6j5okkJ1j1j5QJ5J7kpj0p%nkJ0Nj0JNokMMolQJ4Kj1j3r%mk
39488a5M%LMMqj1%Olj3%LKLMKQJ5lqljlkMMkmkLPkPJ3kJ2Rnnpj2j2ojPM%mroJP%OJ5MllkONj1
39424Dj9pnj%j3nJ1PJ2RMJ8J3LnLPj0pLKKLkmJ0POQnoLJ1JjJ6Qlkoqj1qL%jR%qlPKp%Jllpj0j1
39361A2j2oJj0j0l%QkrlOKj2j3pQK1K0J3J3K3J7PKKkj0ojkoJJLR%NJ2mj3j1NJ2Mrj4JOnj0mLkq
39305B3pjOJKpj5%%j3qMRPJnnkMjnQRLllKMLoj3j3JPLNj1qJ0MKMoj4pJQNj1plnOPJ0PJJ2JmNjl
39241blLJn%OQMK%NJ4%jPqj5qJ0J7LpmNOLmrolNrj8loj4mJnnjm%%%QM%KJ2J9J3NMJ0OJ1Qkmj0m
39178C8NOjj%qoMOorNQMLKllnj9k1j6j5j6j6%RLQjj3pookPJ2%JNjjLPPJ0oj6n%%PJ7J4%onj1j3
39117e3jRRNJQJ3joJ2J8R%KJ0OOPoMOpqmMjj6j1NkpJ1OmnmN%qLKqkJ4J7Lj5rQQJ0Oqj0JKjMKmr
39055B6MK2J0OKnooMqrJroolNoprnJ4J0MMk%mjok2pK1J3j4k0k0j5lLRNRJ2NJOJ2J3J4oj0NOJ5
38999D6J6Olj0%OmomnJ4J3jMLJlornM%lJLKo%Jj7qJ5Lpprj0JPjnj5j6lj%%QQjRMlMopJ4J3J1Rn
38937D0poLNq%%j1LRkKkj2%kj3j5pPljQJl%OM%nj1lLPjKJ2QOrpRQnj1kQPj4j5J7J1qj2mQmqlKj
38874a9pJJ3K7J8jknoJKjlj3nJ3OmqkMJJ%jlpj0lJ5K1J1j1j2Oj2j8j%lj3j0nj1%RJ3Oj0j6nKL
38820e4J7J0nP%nlmlrnJp%J1PKOOkJLjKJ%QjjJ1NJKooj2j0lmLJkNkmJj1jPLLmRPpj2mJ5RQR%pj
38755a5J2QPppPklq%LokpMQjJqr%OJ0oj0jkjMlj1JJ1J0mk2nRNLllMmj0j%KOKMklOMm%kjNj0rO
38690d4J0MJNKljRPlLOkoJQOKomJ2J6MjmlLRRkRJ4MJ1QjjOlj8j3nLJMkqk%J2Qj0j0krj2lj0j6
38630gj0lQRJ4J3NLrj1knmjJNJ0NmKJ2PmJkkLjm%nj0jJPjk0j0LOKj3j2JQQJ2OkNMojJ4J7mj6j0
38571A2j1pnn%mqpokJ5J9Nl%LKMQjMLlkLJ7Oj0k%%jlmj1rnkNRQNJ6J1kMnj0%%mKj0k6j3nj3q%J
38510d5mj2pRQJ3J2JjOJj6QJ9jj3j1jOKRJ7NJ1J1LJ0JlMPJqk%jMOPJ0kj1pqnm%j0j7pj0rK%kL
38452b1J1J1NkMJ3J3QRkk7k1oLJ4Q%OKLKj0nRJ2RlmPOnj4j6%OKMJN%j0mKKK%kQJ8J0NjmJMJj2q
38393D9Kolpj5LJ2JmJLlLOj0j6nj%QJ3LmKKlomk%klnmMpj2lmK%o%%kLQrj8rlJ6J1j2pojPkjKol
38329e3RRKPMoMJ8NolnPOnj1j4KJ1MKQNkonlppnOJ8J0jm%Jj%OJ1QNk%KJkjPQK0J0j1j0j0j0qj7
38269Ak6qRLNQJ3K5J9J1kj4qPRNQQKklkj1j7j7j5j0j3nOQPOLQNj3qKLNKJ0J3jro%kKKpj1mJMLj
38209HNOjopkMJmjjplJN%ljMJ4Kl%PK1J4J3J3jlkpj3pKMrj5JLj1nLnpqj0%O%KJ2J6RLJmkJ5K0Q
38147G5pj5lPmppj3qRJ3PPKj3j2kkqPOj0pJQKpMMmMJo%OJoloj1r%RKKOJ1QMMnjOROMPKj0k3j8
38085A7j4j4pqORLj0j5jJ2J4knLJ9K9Ppj0kMLJkJkkK%moolJmmLMrj8kMLMkoJPopJRKoPPLkrkJl
38020a3j1jKkJ6J2JnnKLKQJ5J2kj0olllknj7j6mKQNj0MRKRrk2nnj8j3J3J4OJ5MPJ5KJJ1NjLJMn
37963A7j3nkK%rlLPQOLj6j1kj1%JqjOrj3OQRQmrojlKNOMOKj0j1oJ%mJ2Rj1j8qLJNQKKPNOPkKLl
37899a7Kpj8qJjjJ0J4LkM%lNJ1J1OMjpkkoMJ1OM%Kmj3pqj1kOJ1Rknnj9j3OQNlkjpmn%LlNMNPmj
37836b7%nRJ0J1J3MKkqj0OJ3NjpLOLmj3lNLONqjRmoJQPlpqmnkKnrljMQ%oj1j0lmOOJ%nQOmJ0J4
37771ELJPPKJlnJo%J6Mlnj2qopmLPlmlMKoLJKQJ7J5jnLPmqlKjlMJj0j4ppj2%jj2lJ5OmkmJjMJ2
37706a3nj2NJ1J1J5MnMLj1j3mKPLJ1K3J3lpJ3J5Mkj0j5r%j3j5lqKNLJ2PmrJJ1%NOmkoqmjppkK
37650dJ0QKkoqnjJJj0j2%OPMkjOOJKJ0J7Q%QJ5J3Kqk2j7kkkj0j3mP%k0j5rJQLJ1RJNOjLNokJML
37588A0kpk7j9lk%RK4J3KNRJ3QLmkM%j0j0ojJ0Jlnj3oomJ0nj4O%OJ0%QJjjJKmnnQRllJ4J9NK%L
37528D4kjQNOJpKjj3pqk0qrqMmj4j0OJ2nj3qllJLjlLNKNJ3J2mj4j5qlJOlnrn%LPklQJ2J5J0OJ0
37468iJ1RjnjKJJ2K0QjJ%%kp%LqqlrqMO%MJmpnmllj5j7j0mjljoq%QJ5J2LlOLpj0oKLJJ2J6LLJ0
37405@PKmjLROKJ1Kj2jLJjJjn%pnlqKLLOKMjjLmmLpj9j0Jjj0j2onLQNJJ1J4JmMJ4ROJ2LoLLrpm
37339A3mjPJ0J1Lqlmj0j4j8j9j5NJ0mj0pKNJ2kj5jKpj0pll%koJKqj1mjqq%QJ4J2OQJ1LoPJ7Nmj
37282e0Nmj5j0o%jLJ0J2J5mj7j7mJkPNMNllNJ1J4J0LNJ0NRJ2MNPKPOmojLJMOLjoj1j0omj0q%j1
37224a5j7pK%j1pkpojQRPJ3J2LmjKMKOJ3J0ROJ1J0ljjoKNkqj7j7qpqj3j2opnlomoj0j1nKjQJ1n
37165i5mJPJ3LJ3J5LJ1J3nmJ1OkmlPKLQmj3qj0%J2OJ5J4MPQRnqj1j8j7qlKJ6QNNjPmrlONjRLNM
37105B6rj1oJ1J2lp%NjjRJ0NPmj1Jkj5k1j2%pmmoQJ4M%LonQlj0rkjj1LJ3JmJ1LmJ2J5RJ3J6Lj2
37049C1j2j4onKJ0Jj1rORPMMOlnkj%nonkJLnmrj6nl%J1Kj0%KJNkrj%nlj%Ll%J0OORPOPJ4Qolno
36984aonjqlLNMkJ1PppKJ7P%jljjoqj1qqq%NKnmJrmO%JLPQ%RJ2%o%J2J0%rj0rrmmKRNlprj2okn
36916f4LRM%Knj0lKJ4J1nJMKJkJKmMJ9J2%OJ0PRJ1%pmmONpoj0mJ1KrmKqj1jjloKPpokMLlMkrkM
36852b5j3j4NK%J2JqmrpkMJ3J1PKLJ0OPKjkjPPQJ0Mnlkqmrj4rrj3pqkMMPoj3nJ0RjlnMJ3OJMRJ
36790a9NR%lLJ%Jpjjlj%J0PJJKkp%KLMjPJ2OLLnrnolLJj1mQMQPppJqpKMJ0JkLlpjJnlJlj1j3oj
36721c8RJ6Pmmoj2jlj0KLM%lLJMMjOJ4J3J0JMONJ1kqnlOjonj1j7j8j3kOloLJmmnPJ8oj5j1kPON
36661d7MJ1QMJ0J3Pj0j3j8k3okql%%PJ6J6PnmMJjKLmkJ1KqNJ3LjJmlomkKNKLLJJMJ0Oj%OJ2J7P
36601E2lMPQPoj7j3OJj1lqj3rj1j0JLnj1j3j5j6oJ2OKklJ3O%%%PQNrqjJJmLQKlkQQ%KJ1J1NNLp
36541GkJ3POQPLKoj3ppopj3j5pLPJ3KLKnMqj4%Kj3j6qj5okpMJj1%J1MONqj6qOJ0LQJ6P%%%knpM
36479f0J3%oNOkkmnOJ1lj1j1pMLLRMOJ9J5KpjJ4OlJomlnOJ0J3J5Romlj6nJorkJ2LoMJ4Kqpj0kQ
36419@jj6%J4mj9j2QNj0lNnkNlljNLj2j5nkrpj3nJ1JMKMJ0%MMjpoNORQLQPj1%J4knlooj0MJ1MM
36358c6Klmjpj2prjLm%jmKkRJ3mkPJ4PqNJ1J6J6%oLJ2KJPK%j2j8j5j3m%QQOPkoNJj0mjrqpnqK
36296f4J2J8K1PKJNJ0NJlkQK1J9Lkkkomkj0ojmj0j7rj0j6j1rj0jJ4J8KoJJljJNOPjnqj2nnMM%L
36238d8pj4j1pmmLOOJ0J0nrORPM%m%JkONOKrjORJ6J2JLNQQJ0%j1JJlojLj0mjNRMNLRJ3NN%j0mj
36175D6opj2pnlk%J0J1MOKj0jLpkJQNklJRJj5j2Klooj6qmorqoj6j1k%pqOROJo%Jj%qqKJ1J3NJm
36112g3nLLOJ3RjlMJ1MrnRJ4KlQPnMJ1jnmJ3J4lkMKkNKLJj9j1JJNMj1j6j0mmpkjjmj3j3kJ3J1O
36052d6lKJ3Oj4j8j%moMMqjjJ0J2NNj0nQJ5MrKOOLjl%Kop%LNJ0OOOKnj8pNJ0K0Jj1koonkKkJLq
35990b8j2kPJ4J3%jqj9j8j2qnk%j0j9j3LJ1QjjJ0J2M%PJ2knJ1J9J3JQJ3Lpj3j1KPLORJ3J4Rkj6
35938A7j7nMPRJ1J3J2Pnj0j2rnnNJ1OlqkMMlqj1mOLmqomoMPmj1j2nlMPJ0K0J7NOJ8J1Kkpj2j3m
35881B2j0nJlLlKLnmkkj3pkj6jJ8Nopj4j0mlMJQJ5QJ5Qom%Plj1kROm%QJ9J2LN%kkNQmqlPOlLLo
35817C9kO%o%pk4pMmJPJ3Mj0j6ppk0j1OPmpjNNkMOPJ3POMOQJLQnoKnkJlKkjJ3kj1j3kJ6LlmnkR
35754A5J3oj0oj0qjNpj0jlj0ojlj0j0jnKQmK%OJ2Jmj5rMjljQJ8J1LJ0Pl%mj4qmKmj3qlKkoLNMP
35694f6RQPJ4J3J1J0%nj0j7rj0oNpmMjj5j2NJ%jqkJ%RJ3kolp%MQJ1Jj1mNMJpn%OQNPknmo%NPKO
35632d5OmMJ2J6J4mrnmJrj1oj2qJpj1nj4j2JjPKmKMLrjJJJ0J0J5J1J1KmkqjlPK0OkMQjmLOJ0QQ
35572HjmJ0kqjoLKrKJqJlj8l%rNNoJJ7RmpNJ3jqj6j7o%J2%nPKpj0j1pOJ1J2K%J4kj2LJ6J0%J1
35514cJ3KmlMrk2j3j0j1nKJ2J8J1%rj2j4j7j7j4okKMONjKQjqj2pKJjqjQJ8K7K0Qlooj1rQJ1LM%
35458d6LOJLKO%NLj4mLlJO%lOJ1R%%RLnrNOkmnloknkkkJ0JNJ3lkKmonmprQK3J1Mjnrj1j0j2j3
35395e3j9j4jPKoONpJJ1OJN%pkNQjLJ7Mnnj1nnpMJ2J3%NNrmj0j4roMQ%l%LJ2J0KJJjrqqnNJ1Q
35333d9J4K5J2LJ0PnpjmJjrRK2Rlml%lnlj0jqj2P%LJ1J2J2pJRpon%J9OnKklLLoj7j4LMpnOPpj0
35273iKJ4J5kkOJpj8j4j6j0J2J0KPJ3J4J3Nl%jLNj3j2QNMKj5j7j0klkJ0qj1J2Jj0pqpjJ3J8RNR
35220A0LroJnj3j5prj4n%nmLJ1LpJ1K8PoNPNJ1%j2k0j5ljQOQNlPJ7Opj0j0qj%qmQMMj0j7j4j5%
35163h5RJ0J1K1K2J6K4J0KLjmmnlOpj2lJOJ7J4%JppkrrlJNjj5qkp%Kkj%pkRRJ6Rlkrj9qOPJ3J1
35104A4NJ0lk3j9KJ1Ppj0joNJ1kOJ3j7k9j0KLMNRlj6mpj5rj2pkLOKOPQMJ2K6K0ornoqnM%poLOq
35045d8rpj2qJn%OPjk0qlmNJ2K1J3j0k1jMKMolj1j4nnJJ2K0NNK0J9PlNJ4JqJ%pj2qLj1j0N%rr
34989h5j8j6LJ3O%Jkoj2lJ1lo%kMrj3lNJ6LqOP%nm%jJ6L1J3kNOqnNjj5pNJ0J5J1Mknommo%OPP
34930d5J2J0Pjj3%Kp%k%J3MoKOJ4Rj2j9jRpj6j1kjj5kNnloj0LM%mj1JJpoJOJ%NQJ0K2J8J8K8K5
34874C2J5ROkKmj3Jj2j9j0j8j2lj0mJ2J3MKMnj3j2j5q%pj7j5JkjQmj0lOQLJ0JkJ2%j1omJLmJPJ
34819h4RJrj3j2J3J2LKj7nK4K3J0PkoMLPRLKmj0m%JOmj3NLp%QPmKLojj0pOJpNJ5J1K0OoJ2Olop
34759BkpJJ0LqmQJ7J3%LPJ3Kj5nkj2qj0k0j1jMRKmJ1QmOJm%kPOqj6j4j4j2ppnol%J%qj0j0j2q
34702a25j2j5OK1RQK1J2QJ8J8KnmkLRRLMJ3J2J8Qj3mkrj4k0p%Jqj3pj8k4k7k2o%Mlj3lRJ1J8Ko
34650a35NmlJ2J2Kn%Pj0k0j1noMJ6J1jnjJ3K0K0J2p%NNJ0KkJ1J2jqqN%lRlrj1j2j1j1j0j6j0mj
34598a40ljNMJj2j0kOK2K8K2J7K8K1PJJLkoOJ1QJ4PjJlj5k4j1l%M%POlmppPNj0q%LL%PLj0lLpl
34540c4J4J4QLllJ0J1Monj2k4qkj3j4nJmmrj0j0mPjmOJ1J3PJ2J1n%mj5rkJ0J0LJLRPKnqokj0k5
34485h9k1jJ8PKPMOMmj9kJ3RJ0QMooononKj8j7pKMj5oJ1NkJ8J9QJ3J2NJPONJ6K0J5JNNknj3qNO
34427B0okJNJ3J5Jj1QQj9k4k4qLnpm%lj2j1pkOJnpjPoj8j3qKR%%QJNJ9J2jj2k1j4j5j8lLnnJJ7
34371a32J2moLJ2J2OOJ2Qnmnrkrk8k8pJ2Kj0QJ3QPRJ6K1J7%j9oJ8J9Qlj4plj3j1lNKOJ6J7Lj1j
34319f2Rqk2j5%MKNJ1JjJ6K0NmMlrj7k9k3k3j8jj0j6JJ0J2J2jJ1J0MK1OqoQJ7J8K2J3J1RKj2j7
34270d1nj3JJ2oj0qJJPlqMmkLPOpkRQLLJ0J6Oj2j5mLJ2J4OP%QJ5RJ5J8J0JOJ3JmNnk2%J1JNMo
34213H4j5j5j9k9k2oNj0oJj6j5oRJ4J3K2J4J3J7QKnj7j0L%O%k0k1rJmj0j8l2l4l0j5j3qJ6J4o
34167a69j4pjj%%OLNJ0LOnpKLJ2J2KJ0J6J1RLJ3J6QRjlJ0J0lj0kNJ7Oo%jnq%J3Lpk2k3rlKkJ1
34112g3J7PjpLqj2jj3j4j3kO%J0K0Nj9rMJ1J3JmJLjlNJ4JKJ4%OJ9Nj3j4j3KK3K6K5PRJ7POQNj4
34059F8j7kqk4j6PMmKJ5J7QJ8J5J5J8Loj0pNNjj4j7knj2prpJmpNJj4oO%j5j3lj3j6mj8j8mj2j5
34007a17k1j9oNPLJ8K8K1oj7kMJ0KrKQJ5K3J2JkLJj1kmlPJ6J6KOLLRqponQOMMKLLkNlj0plJ1m
33949ck0j4kMnkPPPJ9J0lJ1Qj6qPKQLrkqk1rJ1QPQj3j5llkloj0j3mnlKrnQJ3joJ4ROK5L1J8Jj3
33892A8k0j8jNolLnrj0pkjj1j0jj8k1j3j3rj1pJ7J9NNNlmPjKK2J5J7J6OK0K0mj1olMOJ5J0LJ0O
33840B8J4Onj1k2qjnnj1j3l%j4j9j8j5qJQQKMJ0PMQPLKmm%J1K6K2J5K4K5J5jj2k3k9k1j4lNOOK
33788@jKNlnNPMjj6j5%NLnKMj2j2kQJ9J2Pmj4OJ2MJ1J9J5PJ3kj3jnj3j4k9l8k6l0j9J0MJ0J5J4
33737e7K3J%lk1pmNJ6MQQnpOPj5j7j4j0Jnrojrk1prj7j4j7jPj7j2K3J9%LJ5JmJ3K3L8K0r%OJ8
33685e3K6Qmoj3j7%NjJ%MQJ3J4K2K2ML%LJ4J3Kj6j0jpqrj0j0pnJQPlLJ4mLJ5lknj7k4lMj1kk%N
33629c1lj3k7k7rj1k5j4KNMRK0K5K1QMJRJ1roRJ6OlLnn%%pj6rLlmJ5Mj9j4kOoj3pnPJ6RJ4J7J0
33575c9J6K2J9RLKL%j3j3rqjlqpNJ6K2J6N%rrklj6l5k7OJ9J1NLQJ0QLQPj3j3pnlMK4J6j3j9lKm
33521a0%RQMorlj2nNnPJ4J3J8Mj5j5ljoJQNjkooKMlJJ1Kj3j6mKJK%j4j9kNrlJ1J3J4J7J7J0Llp
33463A3j%lLnqrj3%kj2olLnnJ3Kpmj4j4OJ1J6K5Mk0j4OJ0oj6j2qnj4j4PMj4j7nkmkMJ8J7J1J8
33411g3J7RpkLjPKkJoj1j1k6j9rk1kKj4pPNj6qpk9j5RJ3K2L2L0K3K9K3J8K8J4M%mJ2J8Qj6l%j7
33361A0nj3j2rj6%Pj1k1lPJ0Llkj1J0J4J3J2lrj7rPJ0KKRJ2K0J6njJ6J0lj2j8j2qkqomk1k2k2
33312i8j7k2k6j0rj0lQJ3J0J4O%%%koMJ1PJ4J9J4J1K5Pj4J0Nj4j4QK7J0PQQPojJ2QRJ1mj3j3mj
33262Fj7k6k0j2j0KJ2PNNOjKR%RJ6KLJ7K2J4J2J4LpMlj6lj0j2J0J7QPK5J3Ojl1j6j1j4lk0j4j2
33213cj3kOLj7j9j2JJj1oj1j2PK3J5nLJ9J4lpKJ%rj7j2k0k6j1rk1j8LJ3J2Njoj7j2j3qOkKJ5J5
33163a57J4J2Q%PJ3K3K7L3L8J7J3J1PNqqlKj2j8j%J%JLj1oKqj3%nq%nnRLqJOMk%ok7k4k3j9KP
33109a08J3J4J5K5Rj2nJjj2k0qpk8j8RJ9J7K0K2Qj1lKj3j7j1qnJ6J5rOK7K4J8J1LJJ1J0J7K0NL
33063F5lj3j4k4j8PJ2J1J3J2%pJOjj8k5j5j3lok9pNrj3j0J3Qj1j4j2PNmLJJoj4JJ3L%j1k8k1j4
33014a76j1MJ1ORQQJ6J7J4J3K2J5J0Jj6pmj2j3jRlMPrj0NOkrk0j1LLLmj1j4jj3j4Lrknj2j1k4q
32963b35OPOQK0K7M0L8K7J4J0K0J8K4J4%KlJ0Mj7nJmj0k6m4m0pJ6J3OroNJ4K0RLl%Nqj9j5rj7q
32914i8Jj1j7j6LQrnK4K7NJ2K5J8RJ8K2KjLljLJj0rj0nJ0J3J9K1km%Kml3k9l9l7lj1l0m1k6mpl
32864b22NJ0KlJ0K2J5KOJ9K6K6J7moJ0lrjRK3K1Nmok0JOj4RJ2JJ4Nljjj0k4k5k8j4OMJ6J7PNnq
32813h0QJ6jjOrj0kJ5Rj1KJ2Oj4k3%J8J%J4Mj7l1j2OLKj3j3pk%pOMJJ0j%RJ1J9J1pjorjJJLJ%
32758g9J1PNNkPQJ7J5lJ2K3J6J7J0%rj0mqj4QL5L0J7J8J1J0jj8pmk6m0k9rj2j3k0l1k3j4j5k0
32713a29k6j3jqkK3J9KJ7K3J4Noqj2j1j5j1lOK5J3RJ7PPJ0j0qNMJ7OLlj3Pj0pnk9k4j6jj%pk1q
32663a69pqKK2J2NL1M8M6K5K3K6Qko%KLPOlj3j%j3qjpolj5j9mLj4j6njJ1K0K1J3J4K8J3knj3j9
32613B9k1OJ8J1J7K5K5J9K2QLJ5rk1j7pLj0rjpj1qj5k3l6m6l1k3jKnkj6j7j2j6pMJ6J2RJ6K2K1
32567f8J4QJ0RQJ5J4Moj6j3j0j3j3m%mQMmPl%lnRrj2J1J8RRJ2QOj2j5KkJnoRRNkkPkkRNj0k8k0
32510e9k3l1j0PJ5J8J3nj6knj5%kj4LRNJ1J5K4Qj1KJ6J6J0nq%k5j1J1j7j9o%qmJ4J6K7L7L7K5
32465D3J7K1K3K7K6K9K1ljRQMj1k2k5k3j9k0k5j7j7k6k4j8nqj2kMNkjJ0J6K4J4o%JKNj3j1Mmmo
32416a2llr%MJJRK4K4J6J5NLQK7K6LRRjj1k1rj6k1oMMrnnjJ8J6krnj1k3j5Jqj3ooJoj1%RJ5J0O
32361B1K7L6K2J3%mKJj6k9JJ9Jj0pjNJ6Looj8j7lPMJ3K1K0K5K0Mj5k4k6k5l1k7j7l1j8j3k0jjP
32314g8J3qj2RJ8PRJ0MNkOQJ4J7J1KlMKQJ8PJj5j9njJ1K2J5jrLLj4oMLqj5%kj0j1j3j2nLOJ9J7
32261C0MLqk2pRJ0J3J0J3K0L3L2ROrk4k1k3k1k1k1j3KJnqj0MLJ1K0OLJ5J4mj4j6j3j7k2mLPJ5Q
32213AJ4J8Kjj0j1nlNlpj2j2PJ1Nj2j4kLPkqnPnj8j8l4l3k5j9rlomJ2J4K4J3JK1K0J0NJ9J6KK%
32162d2K0K3J4J7mk3j9prj1QJ0J3L0J4NRMRlMJ0jOjj9l3k3mKLj2KJ7J1RJj4k9j9k1k6j1lMNmj0
32113i8j3j3j3noj2pRJrJLorPJ3NLmLJ7K1J4lk0j7qJJjJ5Pj4OJ7K0K1J4RloNJ6J8J0Qnj5j1j3
32062d6j3pmn%JPK7L0K6K9L9K8NRMmrj0OOJkkKLok2j4Mkj1nrlJ1qJJ5lKJ4J4nj5lRJ2%k2k7rj
32008C8j7k2l2k1ok2j6JONJ0J1MJ1K0J9jnJpJJ1J8J9K1K8J6lrj1k0j3jrj8lJ1J2L0L8J4Mj7k4
31963G2j1k0l9k9j2nMOj2k1k0k4j9lJqKJ8J7J1JnJJJljJ4J1jj6k6k2k0j6pj7j5LJ3J2QNPK7K5M
31915a08LJ5J6J0QJkQJ3J9J4J4J4J1J9L0J7MJ1J0%j7k3NK6J0j3j4JJ1NMJ7J8JjJ2KjRNQP%Jkk0
31867A78oJ3JMLnJkmlKj3k8j2qj6j0j6j8jRQpj6ok%j1j2mqqjNLQQqj3j8oLqp%J4J6J0J0J0Okj
31813C2j3l0l1k5l5m8k8j4j4J1J4kLJ1J1K4L4K3J6K2K4J3QJ4J1J3L1L0J8Jj5j5l2l7k5j4OLnok
31771a8J1Ojj%nj7j4k2k7k3j3J2J6MKPLJjj8j8MJ6K1J2jkLqnRLrj1jKNJ9K3J7JQK2Jkkj2j3pOr
31718b6k2pKJ4J4J4J9K0J4J5L7K8PKjROKoj0j0j1j2j6mKJ3J0MJ3j1k5j8j4qj3mrj8j4k1k7k1j5
31673i8j1lKNK1K4PJ3RLok4j4MJ4J2J2K7L5L2J9K4J5J0J1LJ2Lj2qj3j1lnnJqqLLLoqlpj0mlo%K
31621E3j0olj0j1j0lmj4j8k3k9l0m0l2j3j4oJkKJ2K7K7K3PlJ6J1MJ2PNjj1rmoj0qj3l1l7k1jok
31573b34J3K4L8L3M2M8L4J8nLJ0NJ6K1K3K7K2J3Nj3k2j2ronjjOK3J2mj1j4l6l5k2l0j9ljjLP%N
31527c3QJPRJrq%MPOQRJl%J0%qKLKOnj8j1lJrnK1J9RKnkj1j0Mnk0j2QJ0lkkLJ4J7J5MKJ2Pj2k8
31469Hrlj5oJlJOmj1j7k8k7k6k4j7mKkQRJj4j9lmj5j1jRJ7J9K1L7L6J3jLJ5RJJj1j4j1ojj4oPR
31417i4KpmkLQNk%J2J6J3MRJ8J0J5Rj5j2rj2kk0l0k0j5LRJj0j6j5j8j5nNPJ5J8J3J5NmjkrrjJ1
31366a23K0J9J1J3J8Qmj0j3j8k1l4k9j2j7%KlOJ6K7mj9kMOJ2K3J7K2K9K0lk1j1lomLLmLJ0J8J6
31320c5Knj1j3j6qLMJLJ4QqlLmPJ8MkQLklnLK%ONJPOjlk2k6mkkMonnj6k0j2OJ3PNJ4J5J3J5J4
31262b5J5J4NklJLjm%j5j4JmMokK3Mj2nOMkr%RLJ6J6J9K2kj4j4mMj0k0j5nj0j5nnjK3K9K6MpK
31209B2j3j5jOrk0rjPonO%qkK0J4JrlJ0NNjjOJj0p%lKLkpnljJ8K2J3J9J5J0J9J9%po%NJ1J0J5
31154A30K5J7%qpk3j3kk3k4k2l8m2k4j0j0n%mj3j6ljk1k9j9j1rlLOJ6K0K0J4J0K7L0K6J7QJ5MJ
31109IJ3J1QRLLLLjj4j7l1k9Jlj8k3j7j6l1j6%KNPJ6K2K0J1J4J6J0QJ4J8mrJ3J7J3J6J3RMrj6
31062E7j5k7k4j6q%qj9k6k6j2K1K9J3QJ8K5PMPKJ0LOK3J2JMpk1j6j5k5l4k6rnj8k9j1LQNj0rKK
31014a46pj2j9j0JQOKJ7J9K3L2J1jLQJ9J3l%J1K3K0J7K0J5J4QRK1J5J1J2lk4k3j8k3k0j6mJ0J0
30970D9J5K1J6Qjj2k8k7j3kNOJ1J2PRPLj6k0jOnkJ2NMLjPJ1Qpj9k7k2pJkJK1J1klj5j1j5j7j1q
30919c5J0K1OmMOjkPPlmnlMok0pjrj0j3j2plmj0j9k7j7lORJ9L6K8J4J8Qrj0j5qMNKOJ3NJ2K3J5
30866B1K2K6J7J6J5jrkK%j2%J2JRL%J7Oollj5k7j8K%j1loj0mpJJ1J5J6J7K3J5PKrj3jJ5nj7j3
30816I6j5JOoqlqj8qQKmrj4j5j5LJ3J2J6J8K6K0%pMOj2p%lLpj0NJqj0j1mj1k2k0l0l2j5j2j5Q
30766a11K6J9L1L0Ojpj9j8j0kKRJ2J3J6J7J5J0J1K1J9RJ0K7K0NMj4k4j4LRrj1qoklmj5mOQJ0J
30719H7J6K0Kqj7j1mqprj8pok3j3NMpqJ0J5J7K6L0L5L4K7J6MLJ5J1J2J8Lmkj5j6j3k5k6k1k5k6
30673I1j4j1rNqj6j0j3lJ1Mnjmj2nrqNKOJ0J8L1K5J4oqJJJ2J3J5J3J1J4ONlop%QKOKj6k2j3pj5
30621A00mJ1NJ0J7lj5NRkpj4k4j6jk%jok0k3k9m5k2kkjj0oQPmj4qKLj0j2J1Rk%o%QOkj0LJ0lR
30568i3K7K6K4J4RMj3j3j6j1NO%%K%qj3mNKLJ7K1J5K2K6J7PLJMJ4J2MkKJ%NJmj8j3nj1rlQRQJ4
30515A02MnKLlJLJqj6j2llnNMJPJ2ProJ1K8J5%L%pj6j1j0rmj5j8k0k1j3pj2n%k0k5j5poqj2q%j
30461a31KlkL%J9K0J3PKmr%QK7L3J5K3L1Pj1j7j6qNRj%PJ1%j4j8j7o%%PRMj1j6nmj0k1k0jJpJO
30408h2J5J4PPKmoPNJJ8K2K1J2%lklkoj1%LLLqpmj0j6qNJ1J0J0J9K1K3J7KlKlpkj4k2k7j7mkJ1
30354bQ%LNRjj1j5j2jjoplJ7K0Lkj6j8J0J1jPJ4jnPKOJ0Kkmj7l3j1J0J3J8K8L0KoOjk0l4j8j1m
30302b2pk4j4j4j9j4kPOJ3J0%qolokmnnJJlMRJ3%j2j7j4rj5rnMJ0%QJ7K3RkJ1J1joLmrRJ3J5J7
30248d7J9J9J0J3J2MJ3Orj6l6l9k2rjJQK4L5L2K1J4Rnpnpmoj6k6j1RJ2K3K6J2OJ8J2lpj5j8k0
30202B9j6mrk6k3ppnOQkp%%LKoj2j1nmlj3j5pMJ5OOK3K4K7L7L5J9Pj6k8qoro%Lnj0pj0j2nj0j9
30149g9j3mnoLjLOppLJ3J0lmJlj5j0kj1j1j1nmj2pOQ%nqj1j4j8j7j9j1PJ8K1J3J4J6J9L0J5%kp
30098a26kNnj6jJ2J5J6NJlj3rj0j5q%pmNlrnj1j5j0jMRK2L3K8L1M3L6K3K8L0J3NOjKRJ0J4QKk
30048A39j4j2j3k8m0m3k9j9j6mNnp%oonKJj1nPJ5J8QO%NQMJKJ2J4J1Nljoqrj4lNRJ7NkNj0j9qQ
29994c4J1m%J6K6J9J2J0LQLOJ8K2J8J2K2RlqqO%qmrk4l6m2l3k6k0qj1j6j2mpoNooMONJ1J5PJ1
29944e0J7J6J6J2J0PPkrmj1k1k3k5k2j0pqNJ3J8K4K3J6J2NnmJJ4K0J0J3K5K3RnNJ4LKJ0J4PQR%
29896A82kj2j1pj9j4j4k6l1k7j9k0j5j9k0j3j3pmj9k2rkOJ1LmnJLLKjkj0j0nj0jMPJ2J1J0MJnn
29847a43MOPJ7K3L3N5N2L7L4K1J9J7Poj6nMRJ1PLPQlmjpj6k5k9l1m0m2k9j0mj2oKrj7j9k8l4k0
29800a73jNJ1L0L5K1K1K9K7K0J1KojROLPJ0J6QMJ2J3O%kmj1j6j0ojNjrj4j2qqmjMlolj3j6qjm
29748b7j6j5j0j1j5j5mjJJ0J6J5J5J8J3RJ2J4J2OknQJ0JjkoLKj5k2j1mjPJ0kKJ3jj5rj2j3nnj3
29699f1j1j1j4rnm%nKJ6J3J7Rqrj4j6j6pM%NJ5K0K0J2Lmj5j6MJ5J4J0J3J7J6K4J5%JJNRJ8J6R
29651I8J3J0%koj4j3j2plnpj3j3j4j5j6k0j3j2pKRJ1MNKkLOJlkokQPJ0J4J8Rj2j6j8k4j6k0k0
29602a03j3j6j4j5r%MQMmrpNJ2PMQJ1J2J0J4J8K4L4L2K2J6J7J5J4J0RQpnMJkkLjorj2j1j1j9k3
29553B8j6j5j1mrj6rpoKOJ2K0L1L2K5J9J2J5J6Mlloj0j6k0j9j8j5oNLJKJQO%j5k7k8k7k2j7%jl
29504a01PMLMJ0RJLNJ0JLPknrj0lLmj0qj5j7j2j4j7j4j3j6j1j1pojRQJ1J7J8J9J6J5J7K1J6PJ4
29455d8J0J%oj5qPNlj1j0j2j7j8k0j7qppknqn%QOjRJ4J2RJ0J1RKkOQJ2J2J0OLJ2J0Knj0nnj1j2
29402h4plKNQOmoJKOJ9K4K5K6K2J7J4J0mj0pqlnk%l%qj8j7j7j6j8k3j8j7k4k4k0j8j9k0j7j1n
29354b69j3j3KNJMJ1J1LLJ2J5RMNJ3J8K2K8K5J6PK%j2rmplJJmj%lj1j3mLJ0OLPLNNORQJ2J6K3
29300c2K0J1MOLpJJ0J0J0Kmqmlqj5j2KJ0RPLLNjprrj0qNJ4QOMlJ%rj3qjjoqj3j4r%RJ9J8J8J4R
29243A9J0NJ%J0J4NMOJpqj0j3mnj4roj2oJlqj1rpnkOQLQRKQPlKJ2J2J7K4L0K6K0K2J9Qjnqk1k4
29188A18j1j1j5pjlpj0j4j8j9j7k0k0j7j6j2j2qqlNJ2L3L3K7L5L4K6J9K0K2K3J6J5J8J3Jj2j0q
29146A91j5j9k2k0k3k6l0l0j8%L%KRJ0Joj1qn%MJJ%kj0j4j3qm%PN%koorj0j3j3jklkkl%jJKlkJ
29090a24PJ2QMQQMPJ5K3K6J8QORJ5J2OL%mj0j7j6j6rmk%%MLPJmoqqmkLOLK%pj3j4j3j2j2rnknr
29033a07rMMj%lojj%MjkJRJ9J6J5J5K1K3K1J7QKkjKJMJ0J4J1QRQOJk%PPKKpj1noj0j3j1pj0j2q
28977C5ok1k9j5j7k3j3ppnkQJ2J6J6J2OjMP%JkonJRNKJPNoj1k0k4k2k0j7j5j1ojkoqmNMLMOOK
28922a55J0J8J8K3K7K9K1QN%qql%J0J4J0Pjj2j8k0k4k4k0j0ooJL%KQPlnklMJ1J4J5J4J7J0KLJ%
28872a6nmNOOPPRJ0J0J2QMQJmj%%mj2j2qkkpj2j7k2k1j7j6qPRQJ2K3K0J5K0J2Kqj5j5j9k0j7j6
28820g9j0mqjORJ7J5J1J8K4K0J6J7RM%oj1j0ok%jKnrkNPLNNOPQJ3RPjpj3j6j4j5rj4j7nLJ2J0M
28766GLlrj0qonKMOJ3J2PPOJjjkkLRRPNkpprj2rmlpqj0j6j6j3j8j6j3oNQJ3J2PKjknqqnojOJkm
28704a10olljNQJ2J2PNNLJKKLJ1J2QJ0MLJlpj0nppolJjOJlKlj0j0j0qlJK%LJ0Q%nJJMJ2J4J4J3
28645a7QJJJMRJ0J1J1J1MkKMMkkjnmnnppoqrpppqrnm%OQNQRRQKKLN%poj0j3k1k8k5j7j3rmoppp
28581a61j5j7qomMJ2J6J1J3J3RQOMQJ4J6K0J7J3J7J4OMPK%NQMknnkKLOQNNOQJ2J1Krj0rj5pkoq
28526B8pmnnkON%K%klpqojNJ0J3J2PNJoqprj1j3rj2j8j7j3j0j3j0mljkj%%KNQPLKJOQRJ5J5J5
28468b7J3QRJ1PK%lrrnkk%kklmjlpqj0pjPJ5J9K0J8J6J5NmklmjlJmj4k0k3k2k2k4k4k4j8n%JM%
28412a51oqoojMPJ2J6J5J1RONMlrj1j0j0roljkmjjJNNQJ1J3J4J5K1K3J5QJoj1j3j6j7rmjLJj%J
28357i2JkklKOKLQQONJ%%jmjjmoj0j4j2rqnl%JKOJ0J4J4J1J1QQRNO%onmn%MMMJ0J4RKmoonllll
28292c6moom%JLKpqj1j5j4j5j3j1j1qJJ0J2J9K3K3K1J6PNjomjjjlmqj1j3j3j2j0qmLQJ2J4J8K0
28241e1J9J4J4J1LjjjORPPKmqj1j2j3j3j2j0lJMQRJ0J1J1J1N%kjKJjkjKOJnpj4j6j1mJLQJ0RQN
28185A4%qj1rj0j1j2ojnmjJ%mkkjKMOJ0J2RO%jLml%%MPQRQOJkknnj%NQJ0RNM%%J%%kmmoqrqrq
28119a6j0j0pp%MOO%kkkk%ORJ2J4J6J6J8J7J0PLkomlpomnonmklllnj1j6j5j3j2qlNJ0J4J7J2Ml
28063apj1qojMPRJ1J1QPJ1J1RLjnpnlmmll%knlmmlmkjlJKKLLlpj1j3j3j0plJOQQJ0J2J2ROLKjl
27999H%MLNJ0PLLKJMNLj%kmqrnklnqj0j2j3j4j7k1j6j2rkLMKKJjkjkmnmjkllmk%JjKRJ3J4J3J2
27937g4QMJlmJMPRJ0RNkmlmolKQJ1J0RRPMjlk%JLLJLKjkjoppmll%KLQJ0QPPONONK%%nnnmk%LMK
27867D5klpj2j4j7j9j9j4rnJLMMJLKJ%%LMLKKJKJklqj1j2j1j0mjLMJ0J3J2QLklnrpk%NJ0J2J3
27809c6J2J2J0ROMKJkkJLNM%mppqmnmmllllnoprqnonmmmkjj%OPRJ1J3J1RO%lloqmkjkkkkklkJM
27741e8PPPOONJjjKJJJKL%jllornj%J%JMLKLNLKLOQPQRRN%lmnonpomoonklmnqj1j1rqnl%KMNMO
27668f5NOOL%mnlmmnnmnnj%LOOPNMLLKMNOQJ0J0Mkmppropnlk%LMONNNLKLOPPQNNKJkllkkJLOON
27596C0KknpopkJJNOONNKJ%%lkJMPPOOKkoqqpk%LOQPPOPQPL%lqj1j3j4j3j5j7j6j0ojKKKJknnn
27530d5nkLORJ1J2J2J0QNMjlmmmnkKLLJJJ%MNOOPPONL%mqpomllk%KLLMML%lnnpqommlkjj%KKJK
27459E%jlmnkJLMPNKLMMMKKJLLLLLLK%jklkjjllklmmmnpponnmkj%kkjllkkk%%KPOOONLJJKJJ%%
27383AJJjjjmoopqnjKLNMLKKMMNMKKjkk%jKKJj%kljlkjjjj%jlkj%%JK%%JKLJJJ%KNONNMLJklj%
27308A8JJKj%jjnoonmjKMONLKJkmnomllj%LLKK%%%JLL%klkklj%KKLLKKJ%%KKNOMLjjjjjJKKJ%k
27233B7klllj%jkllnllkjj%%%%JJJLLKLLMJJJ%JJLKK%J%jj%%%JLMORQQQMK%%klmj%%knooj1j5
27162B1j7j5j4j0n%LLLLK%klkmoppponj%KLMNNNOOQJ0J0J0ROLL%j%%JKKKKKJJ%LKKLK%klmlljl
27094B4mmnmmmllkkkkj%JJLMOONNL%jlllkj%JKKKKJ%kklkkkj%KLMMKJ%jlmnmmjjJKLKJJJ%%%%%
27020Ejjkkk%%JJKLLMNMLNONMJ%lnopnljKLMNMKJ%%kkmlnmonmlllkjjjk%%KMMMLLLJ%kkkklnnm
26944a7mlkJMNOOOOPNMMK%%llnooppnmljJLMNLLKKj%%JKKJJ%klllljkkjkjjj%kjjJKLMMLLK%jj
26870@lmnmllkjjJ%jkklkj%JJJLMLMLK%J%KKLMLLJJ%jlmlllj%KLLKJlnoooomk%JKJJjjj%%JKJJ
26794c2%J%jjjjlmonmk%JKLKJJ%%jkmmmmmnnmnmlj%jjklklnopqqpmmkkjj%J%j%kklllj%%KLKK%
26720a71%jkmmmonnnmlkj%%%%jjjkj%%%JJJ%jkjkkkkjjkmlmmmkkj%%J%%jkkkkkmnpj0j1j2j4j4
26651c47j4j5j5j5j4j4j3j3j3j3j4j5j7j9k1k2k4k3k1j6nRK1L0L4L2K1J0KLJ3K4K8K4J4Jj0j3
26612d40j0JJ4K6L3M0M5M6M2L5K6J6Lrj5k0k4k9l3l8m2m7m9n1n3n3n3n1m9m6m3l9l6l4l2l0k8
26575a027k7k4k3k1j9j6j4j1qolkjJ%J%JJ%J%%JLMORJ1J2J4J6J8J8K0K0K0J9J8J7J6J5J4J5J4
26529h97J5J6J6J7J7J6J7J7J8J9J9J9K0J9J8J7J5J5J4J4J3J3J4J3J5J6J8K0K0K0K0J7J7J5J4J3
26492c01J1J0QRQQJ0J1J1J1J1J0RRQQPOOPOQQRJ0J0J1J1J1J1RPNNNNOPPOPOPOOMNMMLKJJjjjkk
26433H3jj%KKKLKJ%jjjjkkkkj%JKLLKKJJ%%KLNOML%jmnoomkjJKJJ%Jjjklmmmlmllllllkkj%JLM
26358E4MMNMMKJ%j%j%%%J%%jjjkkkkjk%j%JJKJJj%%%jj%j%j%jkkkj%%JJ%jkkjk%JKLLMMKKJ%jk
26284F8nooopppnnllkjJLLMNNNLLJK%kmnopoonlj%JLONONNNNNOOOMK%kklmnoqponkJLMLLK%jlm
26209B3mnomnnllj%JKJLLKJKJ%KJJ%%klllk%KLMMMLJ%j%kklkjjJJJKJ%kklnmlk%JLOOOMLK%kkk
26134A3kj%%jJ%%%JJKJj%JKJKJ%j%%%KJ%jjj%%%mnnnnlkllmnqqrrqnmlj%JKKMNNOMMMMMMMLKKK
26060a7%j%%MPQJ2J6J8J6J4RLknpnoonnmmononnnnnlkk%%%k%jjkklkkjJ%jjkkj%j%jj%%JJKKLM
25990b1MLNMMKKJJJJJ%jlmmllk%j%kkmmmk%JJ%klllkjJKJJ%JJJK%JJMLLJ%jjKLMPONL%jmoponl
25916b4%LNONLJkklkkj%%jjjjmmnlkjJKJ%J%%%KLKKK%%JJJjj%%KLKK%%%%J%%jkj%klmlllkjjkl
25841d0%%KMRJ0QOMJlmmmlkkkj%%%jj%j%%LMMNNMMK%jjj%JKLMNNMMLKKKLLKJJ%%jklnpqpponkm
25768fnmmmmlljJKOOQPNKKJ%JKKJjj%JJKMLJ%lnopmk%JMMNPPONNJnprj1j0qmkkJ%J%kjj%KLOPM
25694BJjmoppppkLQJ2J3J1QOK%kmkjJKNJ0J1J1RNOPOOMJkloponkJLLLLJJlpj1j2j3j4j0njJLJJ
25630A4Jkjk%jjJMNOOLjmpqponj%%kmponppqppnlJJJ%j%%JKMPQRMLJlmrj2j4j5j1qmk%%%J%%JM
25559a09OQQPNNKKKLKj%knnonljJMPQJ0J2J2J0J0J1OJjlmlk%%jjkkkklnoqrnk%J%KKJKJLJ%KMK
25492c5JLNMJmnnmmlk%kkloqqonkLMNOONMJ%LKKLNjkkqj2j2j1rokJMQJ1J1J1J2J1J2J3J1QPMK%
25429B0lmkJ%KLLLMK%jprpnolmmpj0j0j0j2j0qqqlLQJ0J5J6J1PNjlnj0qlKOQPOMM%nqnopoml%K
25364f3ORRQJ0RNKMPJ1J4J4J6J4QMKkmpj0rqommmjjnnmnnnqomnpnjLRJ1RRQKkmkorpomjj%KKJk
25298b4npqqonkKMJlnprj1j2rolKLK%jlnomkKPPONOONOQPOQPMLLJJJ%jLRJ4J6J8J9J2OL%lk%%k
25231E4%jkml%%ljjloj0qomnnlJKLlopj1j3j1pljJNQJ1J2J7J7J1OKj%JKLOPMLNMNMLknponomlo
25165B5rrj1j2j0j2j0ppkjLQJ2J6J9J8J1Llqrn%PJ5J7J3J1J1J1RLJJlmmnqj2j2qnnmmrj2j4j7
25113b7j9j7j4j2nKOJ1J2J1J5J2QONMNQRRROLJloommnoppoqqrqj1rlNQRJ4J3QL%nj1j0qm%jJll
25053d6mommmpm%KNPORJ0NKMMNQRJ0J0RNKkj0j2rpplKMJ1J3J0QMkoj0rnjJJklnmknpljkjJKPJ1
24988a0J1QMknlqj3j3j4j3j0oj%knpj0j2rn%KLOJ2J2J0J0Klqj1j0qqmjljjkkoqj0pKJ0J1J5J8
24934a05J8J8J3J4RK%onpj0rrmj%MOKNRNJjpj1j3j4j3pl%PMKNjkjjjorrppplLQQNPRJ0J0ROOPP
24872f0JmkJKlprppojjjLNPMkJNjj%jNJ4J2QM%mj1j6j8k3k2j2ojLMLMMLQPMMPOKKK%lk%j2j3j2
24809a33j1rmNJ0J5J8J6J6J4J3QOQQJ1J3J8K0K1J8Q%lqqrrollqpqj4j7j4rkKPJ0J2PQP%kk%%kn
24755Comlkmnrj0oqmmrj2j2j0qonlmjMLJLQJ0PQQJ3J5J6J8J4J3J5J1MKMOQ%olqk0k1j1opLRQNN
24695GPPNLJJM%kMOOP%jNON%oj1j3j3j5j0nmkjmpmjjLjj2j6j7j8j4qj0j6j9j7j5j4j1lPPLknlj
24637b08KQJ1J3K0K3K3K0J5J7J1OOPJ4J2J2J2OLknj0j4j3j1qpj2j1nljMOJ0J2J2J2J4J3J2J2J0
24592D8ONjpoqqpnj0rj2j8j6j4j1j2j2j5j3rnLRO%klnmJOQN%lJjn%LNQQNQOmj0lknJMKLPOQOJJ
24529f5mj1j0j0j0ql%lnlqrnrnjjJJMRLkLMQJ1PJ3J7J5QQNpj1rpNJ1J2J7J4RJ1J2ONNM%kJM%l%
24470B2%mkkjKLNMlmpj2rolkMQRJ1NK%lpqnjJQJ1PRJ0Mj%jnj1j4j3j8j3llNJ3ORONJ0J1J0QMJ%
24408E2qj8j5k0k7k5k1k0j4qokjlNJ1J0J3J7J7J3J5J5PLKjj2j3rj2rlMNJ5K4K2K6K4J6J0Kkopp
24360E9nj3j5j4j1j0j4j1ol%ppj1j4rj1rlmKNJmqqj1j8j4nJNRJ4J3J2J2PKLJpmLRJ1J6J4RJ0Ok
24307c4nnj7k0j0lLjmqj3k1k4k6k6k0j6j1pJRJ1J1J1J9J7J7J5J2J2J1J4J0J2RQJ1PO%rj7j9j8
24262a08j4ojOJ0J0OK%%KRQLKK%l%J3J3J2J6K0K1J6RJLklLKNROopLkqrnnmJkmj0k0j8j1j2pjkj
24204e8nj1j4j8k1k3k1j5j3j0KK%ROQJ0KOJ0J2RORP%nOJ2NOJ4J2J3J6J1ORLopjnnOOjKLJlnl%O
24148a5NLLNLkoj1j5j9j5j5j2pj4j1j4j6mMKnnonplQQOOQJjOKolRJ0MJ3J7J6J2RKomkkjNJ3J2k
24091d2KJ1Ll%jKQPOL%jJ%OJ6K0K4L0K4J3OLkj3k2j9k0k2k2k5k3k6k1j7j7j3j7j6j2qqnRJ1J1
24043a59J7J9K4K6J9K0K1J9K1J9J2MRRpj4pLON%JMj1j6j9k9l2l4k9j7j1qpoLJ3J5RPLmLPJ0OjP
23994g0J4J3J3J2J2J3J6J4QONPNmqnj4k2k1j8j4j5k0j7j0qj1j6j0jMJJJ2K3K5J5QQQLQPmjJqj1
23945d6j1qrlJ0J5J8J6Korj0mkPJ1%onnpj0ooloj3j1oj2k0j5j0rj4j7nNLKPLkklKLMJ0Pkopmn
23889b00j1rMRkmJ0Nj0j6j3qj7k4j7qpkJ0RlLRRLLJ3OMQJ3K3K0K2L2K2QJ2J5J3J7J0JPJ2JlPNl
23837a2nnj3nPQKkpj0j1j4k6k7k6j9j5j4j2pQQQJ5Qj%LMKjkj1j5qnlqj0j2j2lmJLqp%mrlkOQN
23781b62J2J7J5J9J7J2J1PJ0J4J1J4J9J3Lpnj0k3j4j3j7j3nmk0k6j8j0rj0llkkMJ5J8J7J9K5K5
23738a59K4K2J4J3J9J4KNPLLonkm%JKLk%nj0j2qnrqkJjKJ1RJ4K1K4K6J5J0J0J0KnnpmpJJ3J0RO
23684F0Llj1j3j5j9k1k2k1k4k2k2j6j0MK1K4K6K4J9J5K1K0OJ4J6J9J7pj0oj4k3j8mj4j6j1j4j7
23643f4j8ppk2k8k3j2nj1j8j3j0j2j3j1jLNJ3J5NNJ4K0J8MokNOMJ1J7J5J9J8J1NKpqnrj2j0om%
23594a29MPJ3J3J1QJ0QMNJj2rQJ6J6K2K2J7RkqLLlONkj1j2rj2j4k2l5k6k1j9k%pnpj1j4qmmMLM
23542a86RJ3Okk%qj4mkLJ3J2J7K2J1%KJrj7j7%J5K0J8J2RJpMPMRPOJJMK%rq%j%%NLnkpj3qj2j6
23485a12pJjr%kj2nLJqmljJ6J8K0J7J8K4J6J4J6KjJLMojNjLJ1J0J4J3%poj1j4jMrj0mkqj4k3k7
23432g5k2k6k0j1j2nKPRLpokj2k5k5pMMJ3K7L3L5L9L7L0J6LLkJ2J8J0J9K5K0OKLMKqj7k4k7l0
23385B3j8pj7j5qlkj4j8k7l5l5m2m5l6k4k0j3MOK0L3K4K2J6Qmj2j8rJ0RMPOKMO%J0L%NMJ5J5J8
23337a48K1J5J5K1K9K7K6K5K1J2J4K0J0MLQ%qjljrk1k1k7k3rj4j7j4mJlrk6l0k3k0pj%NPONMr
23289a49j4j1pqjJ7J7J5J5Jj0oQJ6J3lj9k4j8j4k1j6KRNQNPJ9K5J8J2J1J4J2QPOJ1J3J3J7J2J9
23244C4J3jjj2j9j6lJj5k5k8k6k6k1j4rOOmr%Jj4qNNjNJ0OJ3Rmlkl%LjKPLk%QKrn%nmLj0k1okn
23186a92qj6KJ6KJNJJ2J3J0Q%OJ5J9K9L1K7L1K6lj7rj7k9k8k3j4j8j6j0j5j5rj3k4k2k9l5j4lm
23142c29kJ4K1J7K4K0J9J0rj0l%nlJLKj%j6j9qj1j6j6jJ1J1OMkl%oj7j9j5j2jMjJ0K8L0K7K0K2
23094b21K4J0OJrokLJ3J1KONoj%JPPMjjpmLKJqpLMJ4K4J8J7J1koj2j4j9j9qnkOJ6Nqj2k2k5k7
23040b30j5pnJ4K0J4OMJ2J6RJ8J8LJ7J2JLj0j2pqmNOQJ1J3K2J3PLj3nOMkj2j6j9k6k2j0q%PJ1
22992a48J5J6J0MOLnj6k0j7k4j4okKPK5L0J8J3Mnj3j5k5k5j6j4j4j0j0j9k0nOJ3J5J1noOmj5j4
22947b83j2qMJ0RJ8J6J0J6J3MMOmnmkPNKLPMpkRJ0OJPRJ1J6J9J2QMMPRJ5K2J1jkrk5l7l8k6j3n
22894a65RK4L2K1PNKlnloj0qkMmlKLLMnj2nmLJ3QJ6K1J0lnllRPJRkoLNK4K8J0jj1j1k0l0k5j2n
22839h9rj3j5mQJ1J8J8J5J4kj7j1%%NRRqk0j4j4j2j4rKL%mQJ8JjJj9j2QJ1J1KJ1K4J2QQKrj5nL
22788g6J8J7jLQjpokpnm%OKknj2l2l5k1k0j9j3j0pmMOOloPJ0QQLLJ1J5NjOJ4J4J1N%PJ9J6RJ7
22733d1K8J0jOMPJ1PM%qj1j7j8j0j7k4lKrK%oqpOJ3K0K1Olopj4j2mKj2j5%lOOQJ7l%QNOMnj8j0
22678h3nj3j7ljj1loqnrj4j0jJ2J7J6J4Kmj2k0m%%olPoroj3j4j2oonLOMQJ0K0J8OKKMKOQJ%RK3
22622a15K3K1J0JOLLPJ1J7J8J5MJ0J2MP%j2RJ6nj2jLnnqqPQPJ0RK0K4Oj4j5j9j7moj0prk0k4j4
22572c9opj7rJ0J4PKqj6j3j2nl%RQK0K1kjJ2QkqmPJ4J8OkNJLJ6J9J6K2K3Pj0j5k1qLj9k8k1k0
22522b5j4j2j8k4k3k5k0j2rPJ5J2J1J1J8J7OKQJ0JnJNmj3qjnqpLJ5PPO%J6Qj2%ROLjqqkqj4k5
22470a07l2k4j6j1j6nOmj2j2LJ0RJnJ6K9J7RNJpj6j5pqrK1L9K7K5K0K1K3J0Km%oj7mnr%kj3nRM
22420f4mjkj0j2j6j3ojNNJ5J5J0RJ0J3JKJ0lj6qPnoJ2QLM%nj8k8j9orj5%J7J4MJ0J6J2QPloNJ5
22368c9K5K9Pj7k0j3qomjj6k0JJ1mpKmk0j8j7k5k8k8j4j3oNpJJ6J2J7K0J3J1Mrj5j4k3k2PJ9K4
22322a94L3K3J7J1j%LOMOJ3jj1nOmj6mJNK0J3jLMKmj4kJ6jlJ6L2K6Jj0pj0j1j1qKJ6K0J0OJ4J2
22272B3J1MnnlNj7j4QMJ1K2K4OjNmmlOJ6K3M4M6M1K6PK3L2L1M2M2O4R9J09J29J70K04K28K54
22231A703K84L09L22L20L00K84K65J74O0m5j74k87l61l98m04l73l17k60k19j86j41j09q7n8l8
22205E64l3k4rmLL6N7O4Q3R9J21J55J88K26K56K87L28L61L71L71L59L27K73J76O6n8j87k83l41
22176C832l39k88k20j36k9O4J48K18K45K66K79K63K16J30L8q4k21l42m26m56m48m12l58k86k39
22150A415k08j50j10r7q6n9l6l6m4l9k0RL2L9O0J05J30J47J83K19K60K88L01L16L15L20L17K86
22122C857K22J29Mj36k46l50m23m32m04l67l20k61k20j93j62j25j01r0o2o7p5o3n6m4l6k9k6k9
22093a05l5l6j1mk2rJ2RJ6K6L3L4K8K0%pLJ7J2rJJ6J0QJ9J9NLQPjorj1j5l0l3k2j7j1%LnKPpo
22045i3k0l6k4k1j3J6K4J6J1JKJ4J1ok0j0Jjpj2J2Qj1lj7j4J8K4J4jpjMLPJ3KkJ2J1LOJ%PpmM
21996h5k2k0LKJ2J8J7J9NJJ1Nnpj4j9j1pj8k4rlj3jJ9J5K0K3LjKpj3j0LLKQ%nlrrlpj0j3k0k1
21946a98j1mj3lJ4LjJ1PJJ1ORJ1KPlrQPoj1mJpKJ2NORKnrljKMkp%jj9oJ1oj8oPkjjnJ5K7Qk0k1
21888a95j0j7j7j8j6omQOnLmk1j8oKNK1L1K0K0J5%rJNoRJ4RJ5RLJNjj9l0l0k0j4p%NJ1J2J0QJ0
21838b15J6PKRKj2j5LJ5J1QNKJ6J1%ml%qlJ2ROlrj0j6k0nMqj7j9kRQK0J6lrl%QJ1lj7j3MJ2J3R
21785a69mj3j2pj5k9l1k5k4k2j2J1K2J3K0L2K9J2RJ9J6J1RK2J8KKnPK4K2J5MONQJ0%jMnj1loj8
21739f0rQJ5%k2l0j4j4j6KJPJ8K2L3J3qJJJOM%j5k2j8j5rMKrnj1nNoJJ2MprKl%K2J4lPJ3JnJ3
21686h3J9pj6KJ6MplPJ8K3J0oJ1J8plKrnj%qkJQJ0qj2j9k6k3l0l7l0k1k0mrj2j4k1j2oOj1oL1
21637b92M3M0J9J7K4J4PJoj4j1kJj3nMj9j5jj9l1j5MPJKJ6J2J4L9M6L2K6K2J1K0K7K5J3nLqj4j
21592A9Jkj5rJ1J2nPK3J1J4J8Knqj7j0lnqpJmnjklj6k7k6oj1l3j5qj6j6j4QJ9QJ0J7J5LrrlLKn
21540a19J5J8J9M4L1OMPJ5J4J5J8kj0nj0j0j0j1j9k3pPJ0RMkj6j7lRkj7j0j4j3Jqk7k2kNolJ2O
21493a19oOK2J2Lnj4jrk3j4l3k4L%Mnj1RK1J7Jj0j5j4rj6rJ2K5K0J8J8MJ0J0NQlj0jJ3K2RLKm
21445g8J5K8J0j5j3pj4JKLJ4J1K0J9J0Nj4l0l8l3k6k8l1k9j7mQJ6J2jj2n%jPJ1J5J5QJ9K5K0K0
21401h2K3K1J6Rj4qjj3j2jj5l0%K8L0K3J9J9QKQQrrj0nNnNJ2J5J3%PKjRJ6J2LJ0J7J3RQnj5j2
21352A23j9j2j0j2RJ0j0j0j3j2J4OmMj4k1nOJkMJ0Onrj4j4nj1j1lj3j6oj1k3k0j2nlppqj9k5j7
21305b15j5mOoj3j2jlJJ9QmMQJ3PpnNQJ2J6J4J4K6K6nqM%j7j6nkOjkjj1j1NK9K8J4QJ7K9J9%l
21254b1J7QKJ4J2J3Kj5k4j5j3l9l0rj0oPJ2QQP%Jqk1k0j6orrLNRJ3J7J2oj3jRRLJ1K2K2K3K4J6
21205A8NMPPok0j5q%kj3j0NJ9J7OoNll0KK7Lq%RJ0NKnk2k3qpj4j6j2qj2j1mj0j5opJRkNJ0nj2
21151a44j2qLJ0J9J7RJj1j5j6j7j8j3lpj2j0j2qjJ0J7%j1J3K6lk0qj1qnoLLORKj0mJ8J9OMJ6J4
21103a68J5K3J5J8J1%MkJ%%J0J4J9J5OjoPJ7mlK0RKJ0JLNmqj2j3nlj6j6j7l0k4j3PKrRKKJ1orn
21051a16j4k2j4JJ1mkRj6k3k0k1J0L3J0j7%J9J8J8J8L7K9OPKJ5K3RpmMlnk6k1olQPQKj2rNJ2J2
21003c2J7J4J1mrKrnmj5j1kRJ2J1J6J9Nj2j7qjmNQNjj2lQJ8K8K2J5jj4oPJj1k3m2k9njJQK0J0M
20952eQMkoljJ5J5kJqpJ4PoNJ4J2J2%lqk0j7j0nj1j8j3j0omplLMolLrk5k6kNQPnPJ2J1MkQK2J7
20896c5nJ2K2J6K2Kj3mJ2J2K0J5kjrj8k7j7j0qJ1J2K7J9kJ0Oj7qJj5LMj5lJj5j9nrj4mJnpkrQ
20847f2J0lOJolJ1K6J8%qnK4K8OJooj2NJ6k0j0MNRkQJ3%pj2rj4k1j2j0k0k4j5Lj0j5%rj3J3K1
20798a06J9L0J2pj9l1oJ0J0J9J1mK%jJp%nj%JRPK6K5J8L6K8J6J7J6Ojj0j1mj2j0kpk1l2l8l5l5
20751h6k0j8k9j4j5k0j0j1j7j2MJ1K9L7L1K5QJ8J9kj3j7kOOOk0k9j1j6j4j0nOJ1QJ0K3K8J8llK
20707i1Jqj7KKMRJ9L4ONJ1Lmj5j5mMj1j1j0j7roLJ0J3Jj2mjMLjnOJ2PJ0LJNj0JK5Mj7KOLJ7J2
20654b0j2k5j6j0j8qj5l2j4Jkj1mJ1NKJ2K2J2K3M2K4PkmJ0K5K0J0K0K8K4K6J0j1j1rj1qmNP%mj
20608I4j0k2j9j6k2l2l3k2JRNQMOjj7j5j8j5KJ3J9J3MK8L7J8RoKJ3QOJLok2j9k2k8k0Kjk0k3j6
20561a20j5j8k1k5k6l0k2qJJ9L3L8K8K5K4J6Pj1lOMJ5%mRJqj0j4j7lJ3RKJNO%j5j4j6j8jR%nKN
20512a46MNKnrjRMnNJ5J8L0K7K4K0J7K8K4JJK6J5k%NRQjj6k2k3j5pk3k4k0j6loprj1NQnj6j7j8
20462a17k3qqj4MJnqMJ6Jko%RMNLkqj1kRjnLNJ3NJNj%RK4K6K0Qjnrkrj4j1jJkJ8J1mmj7pO%RK1
20403f6QpjNQKj5k1j4j1%OkjKJ0K5K6J9Orrj4k3j6qoojoNK1jj6qnlrj2lloj0k1k4j9jRMNkNRQ
20348a96K2J7J6K9L9M4K8J8K3J7Jlj4j4lj6k1rpj6k0oJ7J6mQJ9Npj6rkj5k3k1j6j1k1l1l7k4O
20305b37J3J8K1J8K3K4K1K0K3K6oj0krLkj0rkMj2j3qkOJ2K1K0K2K2K6L2K3Lnpk1k4l2l3l5l4k5
20261a37j7j5k8k3j2n%oRJ5J9K3J1jjJ4J4LOLrn%oJKOJ1MJ0K1J6JPJ6j0j5MQj%%KJ1lokj8j6j1
20210a10njj9j3mj3Jkk0pJ8K5J7J0J0J2J8J8Om%Kqoj3j1krMOJ2J9J2J6RJ1J6OORKq%J%QPNJ1l
20159C9k6j4mj1NOlmNJ7J0pj4nnk3k3qj2k0k6k8j5lmMJ8J3MJ3J5J2K3K4Mlmj0j1j9k0qk%OJ0J1
20111i3J5J6J5Rmj8k4rKNJ5OJ1J7J0NmJ%lmoLjmLJ2K2K3K0K2K3K%Mj8j3oj0k0j9oronmjnmk4l4
20059i3k8k0j1j4j7poM%j2NJ3PJ0KJ3J5J0M0K8JNJjpj1lKJNJ1RK1J8moNNmLjLJ1j2j0KnkJJ2J6
20007ELPJ3J7PkJ4NJ2J2pOQNONJ%jj2j3j3j2j0rrj9rlmQNpj7j0NOj4k6j2MPJ2QnORjqkRQJ0jj2
19950a5pkQJ1Lprj1rkj%JlrmqmQlnkqj0j3j2mj8k2KNj3j6pOJ5J9J0nlLkJQJ1J1QJ4K7L8L9K5Lj
19895D1nj0NOlj1k8j8mj2oPQj1j3jj2lMj7mQRJ5O%ORKorNPpj5j2PJ1OKpK3L5J2QMj0k0j9j6qm
19842d5j8k3j6k0j2qj7j5j2k6k7oRJ5K5L6L8K9J4prKOLJ2K2J2J1J8J3nj7j7j1qpQNj0rpj3k6j3
19797a26NJ1OKRJ5J6J1J6J1J4K6POONRmqlnj4j0Kk%NjLK4K0j5j8JKkNQlpJ3QqpJ2J4k0k1klOo
19744A3j8kMOMpmLJ0%j3mOJ1J0J6LrJ3mk9j6ommLJ8K1J5RkpJJlmMOMkj8j2qrk%MLjJkrqrj2MJ1
19686b4NJ1mmJ3MkQJ0PJ4Pk2k1qj7k6lJ0nMJ0J3J7J2QMj1k2j2qoNKqqNPLQJ1lj0mj6j4KKj4j7q
19634i5j3j1ojJ2K4RkRJ1J6M%Kj1JmlJ3JjJ2Mj1j3qnpmK%mjLJmj3qJ5J1J7J5kNJ7K0QKJ3LmJ1
19581C0J4nk4rRkqLJ4J2ROJlMMommjmkJ8J8Nponqj0j6lkk%lnj6j4pp%nqnloqmOMnj1j6rj6k0j6
19521a58k2j1LmrnoOJ9J3KMRJ0K0K1J4J8K0K6K9K0Pj5k3JJ0j1jJ7J6Mk5j8%pjQJ2Qnj1lRjlK%O
19471e%LK1K3J3PJ2K0K6Pj3j3j3k4k7j6j2j5j9j0lnJ0J0KJ5jj6kKMJ3J0lrkjkKjm%JoQJ6J4J4K
19421C3kPPJoj3mQQ%pj6l8l2mjqrJLRRqlQLJJQJ9J5KOJ7J6RPLJknj0j3oPJ3Lj0j5j0j2j1jpkk
19364c2j5omj5JPj8k0j2j0kJJlKJ9J5MKMLJ3K1J1MRJ5J8J0%RJ5QKMJ0Kj3j5j1j2j0Loj8rloj2o
19313d5%mk%jLRjoRJ3QJ9J6KOKoKpr%KJ2JokJJ1jnjlnrJ0MmPNmj2j0j1j7MJ7%jJ2J1J5K0Mj6j0
19256B7KlN%j0jloJ%mj%kOMj0j2qj1j1lln%j0r%kpj9j7qqLJ0PMlMQJjKJ1NJ0J8PkRK4J6J6K3J3
19199E7J4Rqj8%J1MPKkj5pJ5J1RMRQn%NP%p%moj1j1j1j9j0omJ%loNJkNMLj1oKKNjj6k0ommj6l3
19140g2j6nqRJ7%JQrk1mQORmj0QJ3PNQJnQM%Kj0j8kJ1NJPP%J1J6%l%j1MJ7Nnj7kNLJ8Rnp%Mjj0
19081hj9nmj6nJ4Pj7k3j3j0j4j8j8j4j0j4kQNMJ1J2JMJ0JnNMkRRJ7L5L0%j8j4j1kK0K9K3K4K7
19034D7K7J6Jj3j1j1k5j2M%JJ0Mlpj4rpkKkNJ5J9LNJ7k%J5K1J6J0PJQJnrj4j2pkrj4pllj5k2j8
18982cj2nRkj4lpqJ%ljLjm%KJKQQJkqj0JmmLo%MkKJKROmmnqkopj7j7j2j8qqj9jJ4K2K0J7J3jnL
18920h9PJ2ORJ0KJ1J2PJ2J1Jj4j2j5j6j8k3lNmkORLNJJ7K3jpnknLJ1KkJMpj4j6j0q%J3lj3pnor
18866a13o%J2jrORQJ2K0J7POkj4k1j5jknMrj0J3PqnQNkRJ6PoLMkO%N%oORRJ0J1J6LLJ0KKknNPR
18806D2RNMjj2nOklmkJ0J0Jj2j1NRKrmNj0j0l%MlmNMjqj8k5k3j3JNJmoj1rOMmmml%J2J1QJ3J7
18749b9K0J6Qj7l0j4j0j1qkOONRJ5J3POMnjKkKPKOOqqlMLj4j9jMo%NJnj2oKNMP%j1PJ0J3K1NmJ
18691FJ5K2J5LpnKKl%Noj3j0rm%pj4j1PJ3lqJ0J3J1J4jprmQJnolJqj4%OJ1K1KjJ1J0Jj3j2pj0
18637A0k4j9rj1nNOJ%mrk3l5k0j0OK2J8J0J2J7J6J4LJ2K2J4J6J5J5J3Jj6l0k3orqMrj0jlpj9k1
18590g9%oj9QK2kqonk0k3jKnMJ4J2J7K0MmOMkJLOm%OlOMoNJ1J5PJ4K8K4J4jMJ0KMJ0Ll%jlnj7
18534F7k4k2j9j8p%pkJKMjnj1j6j3lN%JMNM%J2J5MJ5J9J2J0QQNNLnj3j1QJ0LKqnJKjkjnJ0J6RQ
18478G9KQJ3kj4oPJ2Rpj7j4j0j1pMKnpj2j4j1mjJNK0K9Nrrj6k2j9j0j0j3j0jOJ1OKJ4J0QkoOp
18427a7j4jPJ4J0J3J3Jj3j3j1qlrj0kqj1j2j3nrmJ1JMJ2lkNQJ3QNJ1%j4%J1MJ7J1j3mmj0knmO
18375c9J3J2%j0pOQJ0J3KKJ5J6J4KLJ2kj0J%q%J0JmOJ1lkJj2j0j9k2qj2k8k2j2mrk0r%jKJ8K6P
18324f2QJ8NLMjpMJ0QNKNNJLNjlOJ2LnKmj3j0j0j1j0KLoJJ2J4NJlmrj6njMKmMPPMJ3J0prnjlpp
18263b6mj6j7J0jj1qqJronoj%J1RmlLNMmmJ1OKlkJ4O%LOJ0LL%PRKJ4J5Ooj4lNN%mj1j0jjKMj1n
18203b8Jj2j1kjlJjj5pJ0J6J6RNnkQpj5mLlkNPPNJ3QjPNmn%jnLONPJ3KqMJ2Kj7j7joj7j0lk%lP
18143c1J1MJ4J3J3J1J4K2J3Nnj1j4j7nolPQJ0nkNpj0lKJRJ0Lmj2rqj1pNO%MJ2J0MOkropKJ0J0O
18088E6OPORKnj0mOKJ2PnORnj3opnqj5j4j5jKjjnlj0onrok4j9jJPJ2J5J5RJ0MKPNMQ%nLMmlKjq
18027A4k0j7lLKmKJ0LMOLQoj1K%j2j6pjKKKOOJ1J7J1J0J8Rjqj8pmkOmj1qlMJ2QJRJ7RQRkqJjnr
17968D7rmj4k1%J6OlmnpJO%oJLnpJJ9J8KjOPnlmj1mnMJ7OlRJ2moPOj0lKmj5k0LKj5oRMllp%Lln
17906hrlQJ4J6J5%qMMnppknj4j7k4rJ3J2J1%j1ppj1j1j%LJ0J0J1mmQLJpj9jJ0JjQJj2j1nJ1J7%
17852c9lJmKOk%PMMLok%j1moj8k%MJ7J5J1jpJMKOJ3J1NRJ9J3oj0j0qopj0j1mLJ8J5LONOMjjrj0
17793A9lqpj%oj1mOK1J2jOnnOLkj0j4j4j2olj3oJ3Nj%jNQMlKjoorLMooJJ0LjJoj1j1j4j6j1mLP
17734a02QJ3KKJ2PLLnj1pKJ2J0NJJ1J7JoLRJ3Lm%mq%OQJ2lj0jlj2j3qlJ4J9krj1j2KMLM%QNj3q
17678c3oqj2j2%KOJ3RPMqj0lLJ2PmlKQJ1J2PKNQOj%Mj1k2j3KLjmp%Nlj4k0j6KMjkjJj4j5mlJ2
17621i4K4Pj0j0LRnoj1oJ0N%JQPLRkLJ4J1LmQNmjkK%omnlqk0qRJ4Jj4j7j0J6J0n%KQMpmlppmRM
17560g8j0OQmnj0lMRPLRqj4JJ2J1PNLLJ0J0JKLKnj5lRQQJ2Kj0oj0j6qj3j8jLJJ1PRPlLJ6J0%MM
17503a0JPJ3rk6j7j0KMrqM%pJ0J5LJJ0NollLJjQMRQJkkJ0J0PJmLMPL%loLMnjnj8pJ2RkmNQLJm
17441B7j2j0KjmnnLormp%%ollMPjlMJ0J4J1J1J0noQRQJ3MppmorpNP%NPMJqmnrJrj2nJN%JnlLoq
17376a9pj6mJ0OJ1Pj%mlqmN%j0rQJ3QJ1J0JKmLOj2ljLOmJ4K8J0rojopjRKn%mnkjknJ%j0pJprN
17314a6J3J7J9Pjlm%Jkrj4pjKRRPOKkmj1j3pJQRJ0K1kj7nk0k4j1KPJRJ7Opljnpprj2nl%jqkoj1
17255g7j6j9j0j7j3MQJ2J0RJ6RmJPQKNRPJ8J5J1Lj4KJ6J0J3jj7j3kkmKPNmjJ1nj1%Lnj3mQJ6Qp
17202dkMKlqq%MjmnommnmlMMkpkOQjnpj3p%KnOK5OkMJPJ0%j4olmJ6J8RMmjROppQJ7Rmj0qLPKpn
17135Ijrpklj0k0j3KRKnM%pkJK%JLopqn%JJJqj1KRjroqKJ4J0QKmMRMpj4kQMPM%MJRJ8J6PPJ3J2
17070C5Mmn%JKNJ2J5Qrj1oj5qJ6RprpJ%moqJJjMjojNJ3J4RRlj0rk1j6j7j2J0J0J1J2J0NMJ0Ljp
17014C5lPj1j5jnj9j9j1qmKPjj3qj4j2jjQJ3LJNMpqJKOJ0mj6lJ8J7QJ0J1NPOmppoj0j4nMLKjmm
16957e1MJ5Q%%KRJ2J2QQJ1QPPOjnpnlj0j2j5lPjrqj0j6pjnJLqj3lJ%mLJ5J1NJjKJ0J1ll%qk%k%
16897b9MPKpkONmmknj0j4kJoqonnlpjOJ0KnJ1J6MPRKM%JLkKn%j0k1qJQJj%JLpOLOOj0OMj5j7j2
16833h6PJ3RJrKNkmj0mJ1J1PJ2J3LmJRJ2OkJkj5%J4L%POKJ0ORJ4Jj3j3onJN%ok%mmkJ5J3JLpmk
16774B7JJqojlpoqJLj0nNPKl%KkmJj1j3mjj1j4MJ6J4Mkrj4pJJ0J2Pj1rPL%jjjLOJppm%jMJ0PPP
16712a8K%%lkJPJ1%qMJ0QONOMkjjp%R%lJ0NmNQJKRNj2k0j3j1j6j0lLJ1NljMpj6j0okqqQJ9K1L
16653cj9k1j0lLKO%qJ0RMJnJ9RmJnJ2RkJ4K0PNJ1J5J0okjnnp%%jJlj5k0qnopkJ1Qnj8k0%J3Nnr
16594b5l%MMkNMKKmPLkmj0j8j8mMJ4QKOOnj2rj2JNJ0J3kJ1J5OJmnnj2qlk%rjQNQKoJRpkJ1NRLP
16532GJ4J5J8J3LpkNlj0j3rj1j2j4rJjj4j2rmJ0QJ5J2PNjnqJQKkQJ2LNN%onnQRljKO%knj1mjPn
16473A5pJnOL%%PJ2lj2oJjJRLmLKj1l%JNnqMRKk%Jjqj7kQokJMJ5Npm%kJM%j2j2kMJoqlKKnKR%p
16405b8JQJ4J1kLNROjOR%nlj1rJJrj8qLORnj8j6j0pMJ0POJ1J2R%pJknMPJJORkj3l%j1j3lJ2RjR
16345@J5QRJ4J5Mj0o%OJ0mj5r%oqpj0pllnmOJrrj1qJKJJ6J6mmMNQpj9j0MKq%RNQJ2NjlJJ1Nqpl
16284eJONNlnJ%j0j3qkPRqm%NJ3QOLjQJ0P%pjjJOJMNkj1pJ0J1%lQJ6K5K9K6L6N0O2N2M4N1M3L4
16228E17J3j0k8m6n5n7n9o2n2m6l3j8j9rj%ooKK%nLPJkMOjLQJ5J1OJ4QRRPJ5QQK1J7NJpn%npLR
16174A93lojLOJ0J8J7K4J7J7L3L5K6K3L0K1OKoj4j9k5l3l9l0k2k4k3j9j7rj3qOKrj4j0mLJ0J0M
16129A68KMPKlKnj8j3j5k3j8j1rrpnLJ1OjkqoK%j4j9JJ7J2KJ4K4J4J8K5L2L8M1M0M2N0M1L5L2
16082D99K0J0j7m8o0o3o2o0m3k6l2k9k1k5j2qj6lJlj2pJoj1j4j4rmmrmKRNoQQRJ9ROJ0J1J7J5M
16034C5JRK1J2j0kJ4Pkqrj4j2lkkkNlj5j1poqlknMkj1nKPJj2qPNKQJ2QOJ2RMRJ1PkoJP%pj0nlJ
15973C0Jrj0j1j8pmj3mmp%%NLj5j1Nj0j6npq%OKKJ2J5J1RJ4J0pqllLNklllljkqpJlpqj3qonNLN
15913a15PRJ1J0J3KkJMMLRRmoPPKNJ3J2MM%%OLjLJ3L%MJNJ5J5%mj3j9j4j7j1pqjRJ0J0Nj6j5%Q
15857gNrj2j0kJ0MkNOQJ4J2KLMr%NpnkpjOKqp%OJ7RoQPnkjmmonok0j1JpqKNjJmj5lKPMoPMrJPj
15791c8nJNjKRNPL%MJ6K1J1QjKJj0mollmjJNmrpMJ4N%rj4j3j0onqj8j4kRNqLPknJ%%NLJ6K1Nqo
15728b5nrnLRJolpMNNRlnPJ4J1loJ0J3LN%kMmrMJ%J9J8KMlj1qj3qKJ1J5kj3j1KOmkrj3rnJ0PlJ
15668aMQO%kkj0lLrjJ1PJkLNl%RJlnlLoj0oKOJnlKj3j5LQQlrQK6RqlMKkrj5nJjmmOJ0LnPJ0J0
15604A7K4K1KqjLPMjjj9k4j7j3j3mjj0mJ1J2mo%ljj1mQQRLNOJMQonJ3N%NQMnj0mKLKjNLjjloj2
15543Dq%OJ%J0OPnKJ6Jnj0rJnrpkqj6mJ2Qk%KqoJplL%qpj%lLJ7J3MKNJ1jNJ5RPjMN%mmj2k0rKJ
15479ampj0qknj2oPMNJ1PJKLlOJ3Nrj3lLKJMNlj0j6%QKmj2mlnkOPMLj1j5jJ1PNQkMJmJ3RJkkJ6
15417EJ7J0Lo%Nj0j6jmj0NQKolOLkoLMkNPLrk2j4mrJOj1qnmKkKJrjNLMLjlKK%J0OoJOjqlJQJ4Q
15351a5J1J3jpmMO%jKNkqNmj2mj3j4j0KPjJppqoKmkMM%jjJJ5K1Lj4pJ0Rkj0j9nMjN%nKKPOJMRM
15289b6lLkn%lKmj1MQPJ1Lko%KpmJNOJ5J8LmmJkjjKQkrmKjmKlj4j6j0joqjJKKmlLPOklOLJ0J5%
15224a8LJ2Qmj0oKRJjJMRQKmmj8oNoMKl%KLjJ0J0jmKJj0nKmmlPPmjkkJJ3K1krqnJJJ0P%qrNJ3R
15159C3LMJjj2j1%lJKlKlj0qjqj3mPLLNNRQKRRLQRmn%QJ9jk6j8mKok0j6jJ3R%LMRNMNJj%PPJj0
15096C4j5pKJJmrlLJ2J5J1JlRJJ%j4oKPJ3J0ONLkj6j7mnj1j3qKJj0lKj0j2NJ9J4J1J2J0Mj3nL%
15042C0QJ0Kj1q%JKlooqj4mlrlj1j2mJJ0LLK2J5nkJ0J2J0%ooj0%QLnr%K%QMmnKJ0Qmj1j%opnK
14983bJ1KqNLlj%%pLMNJ9J4ROqj9j6jkoKmk0k1KJ5J4Opj4j7kQLRJ1J3J0KkJlqpj0KJj5j4j2jJ0
14926d0Kno%OLpk0rOkmJ5J3lOJ0jKJKOMJ0J1llPjpmnj0oJ2Norj0j5j0NKPOj%MNkkNJ2OljjKNON
14864eKJKPJ1J0%j0KRnJMmllOOjjKRQLj0j2jlplLkjOJ2J0QJ1J1knLM%pprj0KPRpr%nKlqmJMjN
14800C3J0Lpj0oJNkmLJ4lrnqMkj3rKOKNmjJqMLmj0j3lkjOKrj0jpKK1J1J1J7J1JlQMJRL%NMjpj5
14739C5j2rj1j1lnoQloQkj3orj0kmppPJ0LKj2kPROOOj0q%K%%PJ7K9OJLkklJ7QlJLNqjKnoj3j1K
14677bJ1KKP%JJ5PlJLok1j2olmj7j2kJ%RNKQLJ0mj4mJMRJ2%MNKKql%qj5j2kJORK%MJ3J2KkNRKo
14615B5JJ4Qpj1j4KJ0mlpj1jlj5j1%KLPJ3koJ0J4J6J0mqnjJNJ2J1Jj1j3LJ2PJ0Prj2%PJnpMRMJ
14560F0krq%rj6j3j5j8pMjmkKKnlLjjNorMKomkpPJ7ONjj4rMKLMJjl%mj1OJ4L%LMJ0Ojmpnmpj6J
14496e7J4LnMJ0P%j1mOKj%O%%MKNKMJkRPmj4j3mKjLNnqnJolPnlkpljolMmlLkLJ2J3MJJLMljMk
14429c2j1LJ0NPKKJrj7j2lmKJ1J4RopoPJ6Nnoj2k0nNONJQKJ0J5j5j6q%MlNMKRjmNPJ2J9J5J2j0
14373B8qJ0nJRj0k0j0MjnMJ2Q%%MMKMnrlJkLJ2nqKlJmjQpj2jK%jJLl%Q%j3j4pMJ1mojlNNMJ%n
14310a5j1mmNLj4lJ1J4PKOLNJ0O%kJKNJ4KkRlj5%J0Kj0j1qqj4%J1KMRnllrnkmj1jJ1jolJ4K4J3
14252B8LJOM%KNJLQJpokonPPlKJ6RjNJj2j4nkj2j4lMMljjkLj0j2j7j7%OJ6Qnjmj3j3ROpnkJ4J1
14192a5JjMJ7OPK1Qrj2pMNJjkPNKj%J2KjMKJ0Kj2nLJ0Oj1j7lkj0rrrrpLJJLjkNN%krlQ%mKPMKM
14128A1mmRLnQRopNmj9qoJQnj9j8kMnj3LJ3%lpNPmjkQRjj1mJ5Kj2j0pp%OOMqLOpkjnNJ7J5K%Kl
14065c4jnLJ9J0QOKRJ1J7J7J0on%rk%j1j0j1nMJ7J6kj3kjj9j6j%lj0jJ3Kooj3%OkK%ooMJ4MlJ0
14009eJ7PnNPqLLLJ1kqnLnj0%k%oj6lPQJ2Lj2nlr%kj1NJ5mj1mk%rlRjkmnMRJmJ1Q%J7J2%%omKJ
13946GJOJj1kO%ONmROrnrplj2nRJ7RMJ0MlJNNjKKlj0pLPkj4kQ%%Npj9nPJ3OlJ1J2KKPOooojJ0k
13882E0rmj2j8lKj4j9j4j6j2j2j6jOJ3K9K4J4MmJJ0J2kKJ8RRKmKmrmJ0Roj1oPKkMMJQNj3j4jJ0
13829C7J0Jkkprrq%jmOP%qjLkONnqj2j4j2JLppjKoJlmNKPJNJ4RRMNpj4j4j1OMLRNnJNPOmN%m%
13763Cj1oKKopoj1JPJMRpmRlLQjqjOJ1Nj0j1rJ0PmkoOPPJ3J3NjQlj4LPoJ0Qk2j0MJlMMljkLKQM
13700B7kMqKQnj1j1kPJ2PKMklJjRK0Qj0j2mpoLMJ0Lqonrlj0j7lOQlj1lpnKLJjJkkNJKJ4J4mj6r
13639b0j9j3J6PjLOJkMnkqqNJPPOJj8j3LK%J4J5KjPNkKnrJRNKRkp%jLkmJJ3J1j1kPK%oN%j6j4
13577ij5j1jnPK2OQJ1oolnrKJ2KQPlqj0mKlqpnknkKK%kjlmMJ8J3mnOJ6J9J5Jj1j1kmpJrkJj2kK
13516a9NQJ1RMKj2j5m%j3j2pqlj5mJ5Nkj2rJ3J4JJ6J6JOlmNOMKL%%MJj0j1jkKJj4j1pj4MLj1pq
13460g7kRKmj6k1jJ2J1J2JkJ6J1J0K4J2kJJ0kj2J0J0RJ4Rkj1oMKj3j3oo%KJKLok5k3l%KJ3Pj5
13409d9j4nj4jJ8RRJ2Ljom%J%knq%LolKMnjJ0jNK1MrkNJ1jj0nMJ5RRJ8%npKJ9MqqJkpoj0l%ml%
13347a7RJ7OkOnlJ2NJ0NjRPj2j4nJJ5qk4LJ1lKJ5KrKOokJ1J0jnlJ%qqoj0ollnnMK0J4llkkOQO%
13286C9%M%roNkrpj9j9j6mJrJ%ljj0j1qNONJ3PJ3K5J3Mmj4j3nKJ2J1%rjQNMnj4KNj2MNkLookLN
13227a6J2RkJ4jql%J0KjLJ4kk2j1qjooOk%jmNPJ0Oj0JQ%JjolJ0Rm%%rqnjJMJ4Q%MLOlnKm%npNM
13163A3j4%J7Mjoqnj2k%jMOPlnQLokRLj4nlj0NJ7J1MkjkmljQQMJ%QPLkk0j9rmmql%nppQJ3ppK%
13098c9orjOMrjJ1KJMJLLM%jM%Mmj5KKmnMJ6%K%nlj0ORkmqjOJj0j7MK5MoJ5J1kOQlQJ3KQjj0k0
13036Ck5KJ3OKONj2nMJkj0kMK%rnMmqoppomonMJ4K9J6%OOKj2j7Lmj8RJ2ppkJ5jj6lJ%%nqkJOm
12975e3j2LJ0MoOJ4J2J4KnkJ1J0NJ2Ppj9pJ6J9kj4rrRmk2rjJ2J1Pjj3ll%J0KnjjMlLJ5qj8nMML
12920a3PMQJ3Mj%nrojj1j1mqkMQ%pRQJLJ5J0lmJJ3kj0nj3oQJ1M%MRJ4J4J1jjnlNlnj0pplOmrm
12859A1J2J5Omk4j0Jj7rmj7JK0jj1jMQMjJ%Njj0njLPNkmJJ4K6Nj2JJj3l0j0J3OKJPJ2nj4j0lmn
12804c6q%MNJ4Jmj0qkj2LNnJj1rRKnJ2J4PJ0J4J7%oOJ3J0RPLJ0J2J1pk7pkj0j2j4lk%J2QPlk2%
12750AK6J0j2j0j3k2r%JPRjMJ3npNNJmKKlJQKonpqMJ2J3J3jrnLkj2rjjpj0MJ0okQk%NM%JPLNMq
12688Fmlj3MJ4J%LQQJkklj7qLpj1j4oQJ0OLmj3lLmnQJ2PPLpj1qqMJ7PKPlj2LKKRpj1LmmJ1JKRj
12625a%kKjrrpPNj%%NJqMK0OmJj%LLJ2J6%j0j2j0ppLJ0K3J0j4j3qoj4nPJlj3lJ7J4pRJ8kmMRqL
12566B4J7ll%mjJOJ0NpkjKJ5Nj3j3%J3%n%NKj5j1mojKMkm%pj4qlqkLmJPKJkj1oKRJ7Qj2k0j4j6
12507f1lkoJ2J1J5J5LplJ1QLONJLJ2PqqLJjmo%oj1%mj5OJ2j1kJ6K1NNJ3RJ1%Jj2j5JnMJ3Nj7l
12452B8J9J5J4J3J4nj4j2j3mrj3j2j0qmJ1MJloMlj0j3j0J1J4pj2rKJ0J2J4J8K1JplLmk2n%qnnL
12402dnmJ5L%J1%j%rnrj1nRNqPNkjjRmj2mm%ROPK0J1kmj%PLj1pppKMJmNPOJ4Mj1nJ1PKjj7qMJj
12337B0j0qJ3J9PPjkJ1kj1pqjPQnq%ORKj4lJ0NJ2J2KJ2PpNRJKONjJKlj2j8j5j0%J5N%J4J3%j3
12282H8j2Mmj8p%PQKMj4j6nj8ojmLj2k0lJ1PMkmNJLjpPknjj0mqqL%Mknlj2LJ1nlkJOQNlj%omK
12220d1K2K7OllJJ2J5Jj3jMkRJ0poLj0j3njNmj0j3%Rj5oJ4OLoj1lL%%jpj0kJ9K4J0qj3rkKJmNK
12164a6qQJ2R%j0mmklkkjNJ1J8Noj1rj1j4J6K1jpoprpj3jO%MNMjjjjLnK%NJ4jPPlKj2j9j4j3JP
12105e3lqnOJ2NMMrqJJ0J5J1J4K3J6QQKjJlrj1rqprKJ2OPnpLrrJj%JL%nook%Mrk0JJ0%kNMKj%L
12041b1jJ0K2J2%LPQRKJ1Qmkk5k8jLrkjj1RQ%Oj1j1NOjmJJJmmmqlJ2J5KKQQMnpjlrkN%nlnj2j
11980b0J5Rmoj%lJjj2moj3mqpR%j0RJ4mj8j3PJ8K6J8QKmOJ0jjkljPJ1MK%J0RoqJMOPOOkoqj2LP
11920D7kNRLlj1j3qkplOlKJ1lj4j0j0mJ2Pj2j3oJpJPkNLQJ8MpjLjMNjJJJ0J6J0LojjjJ2Nj0l%l
11861E1JLkj5j6lOJj1nLnnnmOOPJ0JoJkpkJJj8j9l%MJJ3PoOJ2J6OJkj0QMLNKMPNLP%%lj2jnj2q
11798B5lj3j2Moqoqlj0kjqjJ2J6PJ0J1KL%JMKMMQLLNk1j3J4Okmjoj4rl%mpJJmjLlpornK1K3PO
11738Fj1j6LROoj1%NKrlkj0%M%LkkO%j0jjqlQQ%or%lnQQj3j8PJ3Q%oJ3J5N%jLNJ2J1LqrJMmj6J
11676a6P%RJ2J8ONLmJ2Mj3j6lQoqljJl%POpj0J%oKNj1j6k2j9nnNOl%jjQNj3mNj4p%qNQRJ1%KJM
11614e0Pl%QJ2J6KlJ1MNJoOklqj7n%J4J0KJ0J3Qm%%JNjljNoo%OJ2m%pj3PJj2j0jOMJPMj2pJ6Rj
11554B8RJ0nk6k3kmlJPJ2L%lkOKnpknrmmkJkjmmRJ7LqOJ2J2RmlOJ6J4Ljlj2j6%QQQK1J7qj5j8p
11495C6jqMqj7k4k9j0NJ6QjN%LKplNJ1J7J8J0j0qOkOJ1nLLJPlj3%Qmj0m%NPK%JJKmm%JJ1Nlmk
11436C6j7k6PRmjNJ4mn%nOPQQNmj6qLJj1j7j7MRo%PQjJQ%RRNJjJ1K3J1pqoknoJMPooQjj0rj0j6
11374@qKjj1pP%kR%j2pj2oLJMRMj4mJ0LJ1KqPQLPoj7mlq%KOJ3J3J3Jj0NQjjlnLJ7J8%qk%Mpj4k
11313A0mMRo%OLLj%MP%qQJ1j1rRJ4JqjLMj5k6mmj5llj3nnpJ0K0J0kORKjj2oJmkloojOJ0J1OJ3N
11253A4j2j1%oj4nqnJ0OPJ2RmMK2J8qj7lomJ5RNQRLJJ2Mj1pqpKJmrj1NOj0J0K3PNjj8j0J2MnMl
11197D0j0qj7j1pnmmJjLOJ2J1J%NQOQjj5j1j1pnNNLOkLRJ3J1MKlj4j4MO%QOknMJMNrqj0rqj4rm
11136b8MQjkJjJ0MljoKRRkqLJj5j9nloKJ0J7Njnj6qmKRj%J1%kPMo%J2J3J2%kKj4j5nJJ1J6Lrmk
11076fPPn%RNKJ3Mj2rpPJ4jrmKknROnlmo%%rNNoJ4J8rk8j0J4Ooj0o%LKopOJ2OJrj3LljJ8jj0J
11015a3j2mPRlj4j5j9j4jJMJ2J3ORLKJJJ0J3P%NjnJJ0J3Lpj3oomLjkj3k1j5rm%jkMMOQMNJ1K0P
10958cMQp%joJmJMKkj0mj0j9j1mKnj4nPJ5J1jmkpmMMoj1QJ1NN%m%jMPmj3%J5J3jJ%olOJ0mOJ4K
10896fKj0j1jqjJ3J3PLqj0qj1JLlNJ3J2%ML%mj3rrjNNMnpjJ4PlJ0PonNPRMj1jkj2nkpj1jOj5k7
10837g2j2JJ5J7%%J2RKppLJ0J4QJN%kjlJRM%%%QJnJ%jroPjqjMQO%lrrLLj2k3j5OJ0KQLJJ7J6KJ
10775A2OLjMJo%Kj2oKJ1J4oj0kj2j6kkLRrj5nRNLQrj2j1KQmkkjmmLOJ6J0J1J1PMKLnlqrRLpp%L
10714b%MmkJ1lqQPorlL%%Mj3j7JKONjMJ0RLQJ0MrpMkj1j8lOm%LQK0Kk3rMnq%NONj0n%p%POqj4j
10649c7MljOKLJ2J1J5J8J5Lkj0j5JKl%NJ0kj1MOoqmlKJ6J8NjrlLorkKMNqnNPJ0Lkl%jLJ3Mppqq
10588C3q%Lqj0rMQlKKrjOJNMMJ1OLklnmnj4mnqJo%QLonmjJ0nqmoNMJkmLnnJ4LnMnmNJ0mj5KLmn
10521c3jklJ2K1J9PJ1J0LLj0j2KNnkJ3Lj3j0mKjj6mjo%KNj2j0LnjoojkkmNJ1ROMkjNjqj6j1lJM
10462d8RJ3mj3KjoKJ0PMMKJ0J2lqj0j5ojJOlJK2J1mmj0pRPJNRJ0Qj2k0KJ3NMJ1J5pj5%j1j4lNQ
10407C%onjNJ5MqNPNPKJnj3mL%LOj0j7mNJ0LmopPJ2KpnlrmjRJ3J1J2rj1%j0j3j1mlNPjnoKJ4Qm
10346a0kQnKJ1LPnrloJ%PJ6J0KmkomPJ2J4%j5j4mj0kRPloOKqnPMkJ0J0J0Ppj1j0j0j2p%KMRLl
10288Ej0j0MjLJ2mpj%LkPJ1jQQmPJ0J1OrMJ4JqJjoKL%LkjJ0Kj2nklj7j0Orj0ppJjo%QjmkqoNOp
10224b3j8oJ3J2Lrj3LJ4QkjNRmrJ6K0J4Jk1j3MOmMQpj1j0jlrNJlQLLMlkLKQjrmJJ0NmlKjj1RJ6
10165A5NPqoNjmj2lQJ0J6MoNlj3plj1j2KPJmj1qJ%KNLlj1j0OJ2rj0jjJlj0nMlLJ6PRJ1MJ0J3o
10108Hk0j0j0oNjMQopN%j1kJ0QKnoLNJ1J4mJQmMJ5Mj7j1ko%OOjJjoQNj2ppMJ6RRJ3%rrlMRJ1l
10048C0j2mjnj0j0rkJ3jqJPOoJOkOknJ2Nj0mkJPQRjJLj3j4qj0l%lnmj1j8oRJppKJ1JMJ4K%PJ1Q
9987a7PJ1Noj0njONQQkm%Oj1j0J0ko%Jknj1j3KJ0J1J4LPOmLMJ1LqQP%%pkJkqj7rlpopjKjKnnJK
9924c3NM%jmnkPJ6OKNKJ2J4J4OpLJ0J4J4J9J8PknMj1k2j2rnj6qlj1j6j6j%oMJ5LnJ3lj2LOKNR
9869B7J0jj2j0MRPPJ4J1mLJ5RK1K7J3Kopj0OJ6oj5j8j0oj1llj0p%kOJ3J9K6J6J7J9J0NPJ2OLOm
9818B21j6j0j3j1QjpPj%J4J9K9L1L3M2M5M2K6J9K3J6J0%j9k9k7l2l2k2j9j6pk0l2k9k2rqj2oqn
9774A72LMjJ1J1%LOK3L8M0L5L6N5N7N6N1N7O5M5K6Qj1k1k0k0k8l3k9k0k0o%lK%J7M4N9N8P4R9
9731I43R8R8R5Q4O2K9j7p3j12j32j33j22j07r3p6n4l5k0l4k4koKJ7L1J9KQJ0PJ2K2L1M3N3O0P9
9693G65Q2Q5R9R8R7R1Q1P3N1J8k5o7r5j15j15r1p4n3j8J5L6M7O4P9R2J03R5Q6P4N8M8K9J9J1kj
9657A740j7n0q2j28j55j56j51j30j01p2n4m2k9j9j0j1rm%MRL1M8M9M7O3Q2Q7R3R4J03J01R3R6
9622A520Q3P2O1M9L5K0J1j4n1r3j21j14j13j01o0j2L2P3J15J54J85J95J95J90J65J23P6K6n2
9592B649j35j91k28k33k15j89j62j37j21j21j17j03q1n9l7j1qqorj0jJ6L5M4N9Q9J01J10J33
9562A054J59J88J87J89J96J74J43J06N8Kr0j67j90j90j74j61j40j12j00q9o6m2k6J3N1O2Q0J06
9533A221J34J66J84J79J72J48J01O2Lp6j55k14k48k58k37j95j53j38j14q6o1k6j6j7rJKMMn%M
9500C77J2L2M3N5P9Q6J01J33J44J77K04J96J75J51J38J00L9k9j06j76k16k27k26k10j74j47j15
9473F16o9n1m9k4kjMK6L8M4M8N1N6M1L1L2J0j1l2o3p8q0q4q2p5n4l9k7k4l1j4LKj0j1KRQPROK1
9430A53L0J6J2K5K9K0L0M0N6O4N6O8M9L7N0L3jl8o5q1q7q0p9p2m7l5k9k0k4k0j0j0qk1k2ljJNq
9389A3k0k5nJ3OjorKRLM%JOKkjRNj0rkkmkLOjrJKqKNj2PL2J5nj4j3j2JJ3LORJ2J9KJJ9J7J3K2
9332A11K0J8K9M2L9L0L8M8O2O9N6N1N6M2J0j6l0l4n4p5p5n9n0n2n0l1rj7k1j3j3lj1j1MLljJP
9291A08J4O%omqj1NMJ2P%J4MLJ0J6J6J6K2J8K6L8M3M3O4R7J06J08J15J18J28J53J69J71J65J47
9253A937J53J42R4O0L0k0p6j31j87k24k31k27k15j77j37j22j00o8o3m5k6k5j9k0j7j4j2lj0j2j
9221B34Kj1jJ5lkQqoOOQNJ8L2L3M2L8M8P1Q1R9J17J45J54J78K20K37K65K86K87K93K94K73K12
9186C676J29N1j9p1j16j55j74j98k29k64l02l19k95k62k30j92j62j19q5p4m8l7l0k6l2k2j9j4r
9156C53lkj8k8k0oNMJOkNK1J5J0J4J9J8L7O4O8O9P5J05J42J62J81J99K30K66K82K91L02K84K69
9120C418K59J95J15L4o2j74k66l16l42l42l08k76k45k16k05j71j37j25j10r6p0n8n0l4l0k9k2
9093C37j5mpk0j8j7j9nLKj1j6oLMkOK1K3K2L4L9M4N0N7P8R3J08J18J29J49J73J86J96K05J94
9056B134J80J52J00O7L7ql9p0j14j71k20k34k36k36k17j93j48j16j04p3n5m9m6l3k8k9k2j8j3
9026A98j4j1pqnrj4j2nQLmJ0J0lj0KJ4RJ8J7J7K3J9L3M2M8N1N2Q0R6J11J28J20J10J02J07J00
8988A426O5K9qm4p8r0j06j17j06r8q8r0q7q3q6o9n2l2l7m3k3k1j4j0k0rklnj1pKmnNLj2j2QNkn
8945F4o%jknrNK0J3PKpJ1K5K0J3K3L8K8K7L0K8J8J2J5ONmk2k3l4n2m3l4m0k7k2j9rqnpJOLklKl
8895C5kRJ1kj0knJMmj0rPLj2l%l%OJ2Ljjoqrj%nNRknpkJ6J1JmoL%MPNOqoOOJKj0j7oqkMkNK%q
8829bj2j0%PNJ2NmPRJl%klpj5nPoqj%MOJ1J9Ppq%QJ4Lj2prk0j5MRoj0nj1lJ1J1J6Olm%MJ0J5k
8771A1j0nMRNJ2QPJ2Lj4j2pj1KmnPknLjj1kMQOpqrKj%NrprpJLLNJ7knN%lnMOOjrlmokQJ4J3Oj0
8707CrNkoKnnOJppqkJ%Kl%QO%%%qoqlkj2jOMMLPRNNKKJ1Rj%PJrlOK%NMpkKNPo%J2PPkommjKJ1L
8634D3MJ1oj0JJ%lj3j1pj4oj%RPrnOPK%onpj1%%jJ2J2PMjqj7jPprLQLMkoRQNMkJ1J5J1Nolj0oQ
8572C4Kj1j3KNLKjJ1JpmoLOon%mL%j1r%Mnljprj8j5nj2j1%JmjMjNJ7J2J1J1OJ2J0JJ0PJJ6J7n
8515D3j4mlJPjnpmKj1j6nKKNjMKqLLJMJklkorq%%k%lKJnKNjKJ1J1JkQOmKNMNkqkRJ4Kj0mKj0j4
8448dLOKL%mnLjljj0kQPJ2RkpkKKmOJ0%lrkqj6klNQ%kl%rlMrj0jJmnLmjJ7NrkLJ2Oj0oKKjpMPm
8380b6NJ5Jj3pkkJ5J6LKj2rok2rLJJPJ6J2NLJomQPRNkm%pnJ0Mlj%Pqk3j5POj4ppmP%PJ4Ojmnk%
8318b7plPlnKKL%jNOOOMlmLKjQMLJ3MJNj2nPRMj1jnj5ojP%nJ%lmRJ3QOnj6j4j0LJ1MKjJPMnj3n
8252a1KQkrkNJ1Mmnj0j2oOLlJ2K1J1OllJo%NJ4J2NJ3Nlj0j5%J3Mnjmork0j5oj6j2NLKm%KlKlP%
8193b6j7j2jRLk%J1J2MJ3J5KKNjK%lKPQj4j4QP%mlj3rjnkOQjKPmoKOJjJnqj5pOmppkNqr%mlJ1
8130e3J2pqMJ5J3jOLpMMKPJjOoqLjjjJLlKKmKQRlooqjJ1RLQKj0qJKnMJ4RllKJ0QJJKlj0j1JNpn
8063A0Jj2mN%jnLMPJ1%mqpqrLJ3Om%Oj%JKJ9J0LKj6qJpnkJrpQJ2nJJ8OolRmj3PPKJ1Pmolj3j3o
8000CnmOJ4OJkJjj3mRJ1QKRJ0Lkokjj5j1J2J2N%nMjj0j0lnpOmmOnkmpnkLKjpk%MRp%K2K0J3J1N
7938F0j6k0omkLNkrojJKNjmjn%J2mj2ljqj0KJ4J1J1Mlpj1pMOLNQJknokkLJ3Lj4rj1mJ3jpmrjJM
7875b6J3J8KrklPK0RkMJ2%j5q%kmoJKj%pjL%oj3%j%J1KllKQlJK0Nj4rj3lJ4OJnj2lPMOOJ1Qrk%
7813A8n%PMkKloPJ3PKjmj2j1nkPJ1jk1j5Kj0j4JNKj0oNNROrlJ2J7J0Nnj0JJnojJlMQjj0qoqpqM
7752d2J8OjJNJ1Mq%O%mJJ3%j1qj3lJ0jpRJ4OLMNQRjoJMMkkkpnnj1rMjmkj0KJ0LJ1LpmljlmKj0p
7688b7NPQmolk%ln%J0Lrom%KLLNKkKQJ5NjKlmlnrqpOJ1rj5KJ1KNP%Knj4jOJJNJ%J0J3jrmJ2Rj1
7623DpKlLROoj4kO%mJOLmjkploj2rmLKpoLJ0J2LlKjKQMOJ1OLJ3Qool%K%oj0qqj2lKpnkpj2j1J1
7558e6J6J0J1J6J5lnomlnjmLJ1J2Pk%MMJJ%kNPjnnj3j2NJ6Kj3j3KJ2m%Nlj1j9lMJ0RkQQkKRONl
7498B6j3klKlnJ3J0Mj1j8%Kk%OJ1Kpp%JNJ2POjJRRPjpnMjj1nq%%rn%MkjknqmjoJ0J2%qqOJ1J4%
7435B5j4j4j3JJ1JLPomQJ6PpJkmjkjlJLKOLklmjMKkj1j4r%JKJ%J6J8J2J6J4JmKPJ8Nj5j0rllpN
7375E1J0Nj1k0ooj2j0MJ1OJ4Nj3poJJ0J2Nnj2pRNMMjpj1%JQQl%oprr%jm%Oj0j4oj3j1rpNJ1J4
7319c4J9J1%%nqmj0LJ0j0rNK%NJ0jpMK%J0RNjkJOKj%JQjpOQLjmljomKnjO%Njj6j5j3oJLNQLoQJ
7253a0pNJ0RmJ1Qj1PkoLmplJmNJnnj3jMMMnj0nOJ7J3LPMqj0MPnLJ3jj3oNKKO%nNJ2OLNlj1j3qO
7191A6prNKOLjRJ2loJ6J2KkjjrjJmjLkoklKKklonkmqqpolj3j6JJO%pJ0QjjlKROPJ3OOR%omJNJ7
7124C5%k0j3JJ4Qjj1j5qLJ2Okj0JJ1LkoJNOKmklKL%O%nomLor%J2J0ojKpk0j3J0J0J5Q%%r%Ljj
7064Gj3rKnj7mQOJ1OrnJORlKNrLJ0Oqj6l%LJ5J0nj4nJ4J5NJ2Mj1olJPppjnj0j0orkLjJmOJ0JKM
7003a2RMpk1j1J1KjN%PJ2KqmJjkllkNLj0j3oLMmkopQJ2QjoPJ1nnMpkQONLMjqOMj0%J1PJ5J6Jon
6940B5lJoj4oJ0RroJ1J4Opmj%RPjjKmjNmrkMN%nojjj2j3JJ1J6J1KnrKRMjKnj1LOkjRJ4KLmj6j6
6878A7j3pj0j4kknJ0%kRj0qRJ3J0pnolJ0qj4kMN%jjj0j0jQJ8J1K%lMJ0OpqlnJ4J7RNlk%nmjj2r
6819a2j3rJ7Nj1o%OmpmjLknjNJ4J8NmKRMqkjpjKLJ2J4lj4oqj3%J4Mmj2j7KPJqj2omJljNJ0J5Lk
6759c0J3J2nqMMpJJ4OpoOL%QKomppkoqkJ4RjRQKKlj2j3MJ7J6OlpKQllQKj3oMkPRprJRMprnMJ%N
6693A6kPJ4Noj2j0j3nQJ2R%KKnjLj3qKj7njj0%kkRRJ%kroJ3J7OLMOmj6mJ2J1lmjj%JlJM%MJ1J3
6632D0nj0MKopM%jKlPLJNopqj3j0KMjJMNMkljqj0kPKkLLJrmJJRjNJ7OlNPoj0j2j1r%%nkj1mLQK
6566b4k1j5KQQJ7Pj4OJ3KjnlLJKRLjj%%qnMJKMLOJ0PppknmokjlLOMMJnj1j3j0MOPLJLn%jnJjpk
6500c4J4J5PKmrlQjnlj0MJ0J0Q%jj2j3mjLkjnj0lkpqmORKMkj1j0j0mRJ0QRNJ3J3J0J9MljnjNMl
6440A9lj8j6lJJ6QnjOPNQKLJ0Mqj3poplJqj2pnOOOQKRLj2j1JRnj2nrjJ3J2Plj6nJ4OkLKOkmLnm
6378a2LJ1QmOJ0L%L%roj%mpj1j8%Q%jnkplLKRJ3K0PjkoJ0RkMLj1k2nRO%JKKkj2nmj5qLKNPljJk
6314b1lj0kMNJ4J4Pkjqj0J2RmnlJ7Nj7JLLNlppJRQJk%JJjmKPj1j5qj0j0mKMRMOJ3LjknRK0Pj2p
6252A1RJ6OjlonkkLJ4kk0mPLnkmrMJ3MjLljJ4QkLNKnpnpnroQPkrnKLj1j5nNJ3LmMmj7kJ8Rl%M
6188HJ4J0Mnj6%JqjopjLLnjnkNNPlpp%M%J%NLkOONljOROK%j1jOqj0nmj2j1Nlj4jjnMQJ1PNL%Kj
6121ckmQJ4mmmjJ1Jj3j4LJ5OKQLj0rpj3j3LPnlKMOMQMklkRJ3LO%j5pLNlo%JLjj0jJ0JkN%nlpok
6056a6kM%jJ3Qqj0%JrMJ5oj2kkLQRPkllJkqRPqj2pOJ2J0jj3qLONkJQNJ3J0o%Jkjj0j5j9rPOKkj
5994a8NNOOJkqpJmJJ0J2NkNn%QkMNNQJpj5j2okmqj2j1NJ6J8Pkpj4nJ0J0LRQLoj2MJ3J3jj%j4qL
5934A5J1QjprmlkokOor%lMRlmpj0KNOJkJ0MrmMJomjlQQjJ%oolroj%LPPooPPMmompmNJ2J0QkJPJ
5863FMJ3J2lrLJqj5j5qO%rMJ1J4Q%jqoj2k5j8j0jJ1PRJ5NljKj0kJ5KKJ%PPLlqp%NQ%pqkQNRjrR
5801CJ5J1%nnnJlJ3K2rk0j5j6nJ1PQJ9Qrj3jJj0oKkmjklkl%RQnj3jJ5J1QJj4j1ljllJ2J3rj3L%
5744a4nJ0PqokqqKJ1KlNJ0Nj3j0JLJ4J2MMOKroQJ0mj4j0%Kj0j2JPPJ1KnJ%qj0rrMJ2OJ5J2lMJ0
5687B4qj4ljjklj%J1J2NLpoNJJRknLlj4kLKMojJ8K2Oj6j0RNqlLrj6j1nommpPJ5JqqroJkojKjlN
5622d5Lj%NJ3Qjj0j0jQQk%mj0pljORnjJ2J3M%jjJ0QRRoj1jJ7QjNJ2Lj0qq%kqJ0J8J1Mj%PLMrj6
5562D3rj4J0J3nrj9p%O%olpOJ5Qnllj0jkmlOJ2Knj6j3jJ3J5J1%j6j1r%NjkjOLRRMO%PJ2J1J3J6
5505G6J5QJ0jJ1K7Qmqj1j4k5j4Jj0j8qj5j8mJ2J7J4mk1j1k%RJ3Rj%jkrj3%kljokj4j4QJ3NmqMO
5452bPPj%l%PMjqooj%PJ7J4J1J1J0ORJ0%mnOJmjjqj7j1j2lJ8Orj0lpj0n%j%KokJrj7oJ7J4KoM
5392FJ4J0Nnooj2kJ4RL%k0nJ3LRJ1pk1j1ppjJRLj3qOJ1Njj4rQPmkPOKoJQlpj3qMJ4J4NPLMKnq
5331A3j2oMMmLnrMKJ0J1QJ1Kj5k3QJ6NMpoMMj1j3j3j4JNnoJ5J8nlOMo%J5J3JN%qMJ1Koj2nNJkk
5273B1JMRQrmNlkkmpkK%ooJnojJNljNRJ1J0J7J1oj2j0q%L%QOnkKKQOmoj0j1JMjJ5J4MJ0loJ2Jp
5210F4Lkmjnj2oNlpJKpjQM%pnLQNj1jJ0pjO%qmJ9K5J6J9RmKPKLjopj2oL%ljpoNJpnPQj1j2qjNN
5144F6LLOknKLknmokj%kLJ2JRJ5jlJMKmj0j0mqj2oRQJkJJ1J2RJ1NMKLJ1J7pk0mk%RmpLRJ2Ko%R
5081A39J0MJ2J0lNJ2Ojqj%qmjKj4oK3K5J8J5J4NLJ8K0NMJ1JJmn%mpqkLJ0J5OJ9K4K1M3M4J6J1
5030D99K0K5L1K7K7K7K2L1N0N9N5O0P0P4P0Q0J12J39J70K23K85L53M50N72P13Q78J054J222
5001G398J353J437J463J415J300J092P47K28m26j074j599j895j938j787j511j224r59p22n46
4982B752m18l19k48j98j42j06q1n6n1l5k2j3nj9k4j6jjj5mJ6K1J2J7L1M6N4N5O2P7R7J02J11
4948A679J28J35J50J63J82K28K97L90N03O72Q99J162J469J808K176K532K804K973L007K885
4928B6242K622K177J439K87j203k677l716m153m080l618k948k296j757j319r73p26n46m08l08
4908B039k37j86j46j04p5n9p0p4n4o7p0n6o9o7m9l8k1rlnjJ3L3L6L1M4N2N0N3O2O3P5Q1Q3J24
4873A379J64J88K47L37M62N94P30R04J083J220J314J371J369J307J165R03N15k0o83j307j719
4851A1523j894j855j654j367j080q38o28m63l37k41j92j47j06q6n9n3n0l3m4m4l6m5m4m3m0l0
4825A14k3k0k9k8rqnloPJ1PKJ0MqJjJjj8k5l3k7k1j2JK%JJ1K2K0RLLjPRmqj3k1j3kPNLOqoJ2J3
4771f2OLJ1J0OOjj0j2%RPJlmqKRqj2j0m%oRK5J8J%%nMjj3pjj0oK%PLKJ2LJlrmlRRmkQ%j3%RlNO
4707b1qnkjKLONjlJ5J3%jj0polkpOJ4QnqNpj0QJ3MjoLJ1MKoj2NOj1qJKNljJ5J0%mnqKJ0qnKj1o
4645b2Ooj9mJ0PRPnlKlJ0J8Mj0j4JQPOrj7lJ2Qj5j8jnrkoj2jNPJ1LJNMJ0J2J2KnkpmlJ%nKlKNl
4585a9JMOMKkrMkj8kQPOmnlJ2J3j3j4KLJJ3J4JJpPK5Mknj1okJqj2lpj1mnKPQONKMQKmjkojoj1n
4521b7rmNMP%mnlmNJ0lkPPmqmnJ3J0JJj0KQklMQJLQPRLnmOJ1Qrj5p%pj5qjMRJ5J5QMKKJ0%j2j0
4458B7j1PJ0j8rRJoj2MPj4k0j3MJ7J7J7%r%MJ1J4NKLRNmj0j0PJ8LqMQLlr%Jmq%RlnKJ2J0JJ1J4
4402A00Nj0k4k1oMoj7njqmNJ1orNLkjjj3nJ6LpjJ2J0mj3j3nNONMQJ6Pj2j1JQM%%%j2j6Jlj1oN
4346iJ8J1%LJ3QQJ4K0K8K8K4J4RNpk8l4k0j1j4j7nj0j3%nnp%%j5%PJJ5Oj0J1Lj8mJ%oNJ7Ponlp
4293A7OQ%%p%joj9qJ6J2Mp%JlNKkLM%KJ4J2KQPMJ2Ll%qj8k0pjqoj0j1RJ5PLRRjJjLJj1lmj0q%L
4230A9PQrpqrO%nLRQRPJ0J3Jpqj3rNjj1lpqnomJloMOJKkkmj0p%MQjLJ1KqmJ1QlpPJ1npmKJ3QJK
4164A7lj0pj0lJ0M%jKJJllRMNKqj2nQJ4J1j%NMkj1kolN%mmNJoK%j1pL%kMNNOkm%nlJkoolLJro
4098c2J1J1JnkllLJkO%mOMnqLJ2LJ3RpkklMQPqjLj4rk%LJ4J3j0qKlpmlrljMKrMPkOONJ0J0Pj%k
4032B4nQMj1j2j1qLmj3mkjjONj1omKR%po%pKOlnlKNMKjj1lJ4JnKKJjq%RJ0J0kLNKJ2J3Oj0JKj1
3970aj5j3N%rljjkpOK2J2nnLKMJ0KJ1Nj1orj3j5lONJ4J0j%m%J0Llj0j3rj1MNmJ0LrOJ0J3LJMj1
3913eomo%rPJ3J2J4j2k5mJ6OmqpjnLRMmpONol%J0J3jnOJ0OJ%J0Jmkj2j2m%J4Qlj%Pqj5jKlqMPK
3850AOJ2J0pj0qlkpj%NKk%NOJMplJ4P%%MLJj0oJ5J7Llmj7j2%%Rlj2rpJ1RJPKjKrnJ2LKMlKK%N
3787C6j1rJj1n%QJ7NLOkkrj4ooLPrj1o%pjK1RKqj3QJ2%j5j7qlJ2PklrKJ1MKNJrmQOLmj1KJ2Jm%
3726eklKkoQJ0noJ1QKJ0JLJ3lj4qnn%QKj6j8pNJ0jmknloJ2L5J4opj2lJmnkJ4J2pj1LJ6OKMNOLP
3665E0RJ2%j3kNQPl%KJKprj0j7nNKJlmkNKppj3JQlkNjj1mkj2pKJ3J8PLMLmj2lmj5nJ%K%QPQQn
3602A7j0j1j0j5j2LPQJ3J2J1J1MLRJ1%r%O%jkjjlJJJ7L1J1JJ4K4L1L1L5N5N8M3M3M3L4K8K1Ql
3554E67j2l7n3n5o1n2n2n3m2k7pnpk3j7Lj4lJ2NNROmj1j1JJ7OMOKKkmRJ2QK1J4J1J5lNPLJ1MjQ
3503B17J6OqmJonjmKLLNK%QK3J9J6K8K5J3J4J3Mmj3rrj5j5k7l4k6j4j7k3j5jJ5J2RJkLj6j9mLM
3452A74J0Onjlj4j6jJmKqj7j4ppnlj2nNkqjknlj1qOPJ1PmRJ6J7Oj1PJ7K3L6L4M0L9L4L4M7M8M3
3400E02K6jrj8l3n4o4o1o7m7k5k9k9j5j5j0Mkmjnl%kpLkj4j7oJ0J1J3RJlpkj%j1j0OprKRQlqn
3348bj1j4QPj5omokJ1J5LKNJj0j6pmJJ1J2J6Jj6pPJ3J5OnKrk4%NmPNoqNJ5J3oj3%rj5%OQORRl
3291Bj1qPNmMNRJ0%onPKpj1mJ0KjMk%J4NpPKj1j1mLORNPJrj3rKLnj0lNnmJ3J0jLkppl%mMJ7Qok
3226Ik%Nj0nJqmKQJ7J5OMlrjQJ5pj9%J7J1j2rNLj0j6j2lQQJ0J0OOkj1j1j3mRJlkLRj2j0Pjj1pr
3169b3mMnQJ0LJ4PNOrk%roNROLpj3KJ2OJ1Qj3j6qj0j4jjQJ1qrj3pPPOPOnmolROPjj9j2MKNNm%
3108b3j1j5jQknJ6J7NPRNoj2pQNljJ1J2kj0k2j4J%kqoJ2K2NrpJOlpOJ0PJ0NPNoJLLknjjlr%Omj
3047EQkj2qoj0oLJlJ0Oj5j0LNPOmnJ0QlJmrpRJ1MJ5J6Nqj5jRMmNjj0loj4j2pKJ7J1%mkPLoj1mK
2986a9%QJ1kpoj2KJ0nkKJJ0J0ooj1j8LJ0RNoMJ0OL%PJj2ppoKLmj0KK0K7Mj5JROkmPmjRJQ%rLKJ
2925C6L%mj2jJ2J2%j3j0jJ3J4jllnqKJ6J5PLNOjj3j5j1pRPj3j0oj3j1rrmNQJJMJ2Mj1qjROJJlk
2868DjJKLOLNKKJj0j3mOmqPNooKLjjpnRJ0PPPjqnlmQRLkkmpnmPQonmpj2j2NNLJ0jj4j1nlONlj2
2800d5nJ6J0jNOjpNJ7J0Lkqj1KJ0lrmk%JRJ5%j1qlmpLJ2J0lm%kJ5J6PJ1%j1j5JJ2P%qj0pjLOJo
2742A5Mjj7KOkJj8k1rlLlPJ1NJ0J3O%j0k3nJ4PJKMjj2nROMOkO%mJ1loKkLMqoLLnjJnLNNQP%kJl
2678B1qnoq%MkoKQrnJ2J1Q%Ljj4rj1kJ5J8Pj3j3J%J5K3Jlqj7o%lljnpJOJ1OlNlmRMJ2MKJ4Mrj8
2618B5jJ5J1PMjpNjj1oLjj6j3j1%J0QJj2%LK%j0okMonRJJMPJ1KMJ5NkKQlj2JJLKpK%nKllKJmnp
2554B1j4j6oLKnkPJ5Nj4qmmPOmqo%KJ0J5LMlj9qonMKOQJ8J5kMpj3MMlmJ0J0nkqj2pkMORKLQqnl
2492DoMNOPOqj1J0OqponolOJoljnkJ1Pnj4oMj0kJ1jmjNjlQKmjkKNPlqNJ2LlKJmnpnJ0J5J5Oj1
2428Ij5pMkolKO%mlknNJ4MpoKK%%opqkJ0OmmLkKLnMmj2RJ1KJj0j0J1J6RLjONKRKrlnj0MPqjNlM
2361HQMmj8oJnLjLRk%OLlj%knnMOMJklOJ5J5Mj1lNJoj3qLMJ2MqPPoj2j3LJ5PKjj0j2oJONkkJJ
2297A4J1Rjrj7rnplJKllJJ5J6jlqmQJ2MnjlkJJmmLokORNj2jPMOKmj1qkLQJKNnllj1qlMRNQORl
2231B3j2J1J9RMmj2nOMkjojJ3J5Jqj5j6kOJnomnj6oJ0Moqj5rOKQJ1mlKJpj4MJ5J0%nPLQJ5j5k0
2173a4kPJ1RQjj2nJ4Nj2lNlopj2jQJOPKn%Olnj2qkjLLQJ4RoKPj0kQJ0Lkknmj2j2MQorONLJ2RJM
2110B4PKkKj1j9J2J3rroj0kJ3J4Pj1k1j5LJ3Lj1j9qLNJ5J5J5kqkLJkj%J0jj3j0j3KMKQNNJ0ONK
2056B4rmmJOKNrj3o%kjK%Omol%J0N%j1j2PQqpnoQJ7RM%KRlnQPkpMRjmoKLjNJ0%j4p%%nMJ2NJr
1990B1j2j2oPRRLp%Ooqj0j0jjJ1J2Olj5j0j4qPO%NJ1KJ0J0%%lmmoj1jJ1MrnJ4kj6roRPKlmJ4J6
1932FRQJ2Mjj1oJ3mrmj8j3nkmJOPKjOK%j3j6j4j3LRJ3O%rj0MjJ1Oj3lNOOJ0OPQlKNrlJ0nKQqpj
1871cMMljQMnJ%nQJ2j0j9mOJ0%j8j3OMMQJ2PnpKJ0%kJ1Jo%LKKlpQLoOmj3%Mjmj3mJ1OPJ0Kpj4K
1809A1J1MJ1Mknqrj0nJMJ1J0KKkljlJpkkk0rloKMPMlJNm%LnNQjjQJ4J0%nOMjMlnMJ1QJkql%nr
1743B9j1jKpj2j2qK%lknQJ7JKkmlplKJ3Oj0Lkj3j2rmj3JK5J9Mo%PNJ%Nknk%%jjolQNkNJ2Lmp%M
1680GJQP%JJ%%mpjLPKjJj2j1RQmpporkK%%lMJPP%kj5ljrjoKRLPLj2jJ6Mj0j2LOm%olMRRomQJ2
1613BJ7PqqNlj5mjKJPJ4lnLj1j4nlJ%%Mn%lqQRP%mLQ%jLm%jj2qKJ0RQLj1j8rKLMJ0R%Oqk4nLNP
1547a9oqlNOQQKqrmlK%%JkMNLJ5J9Mj1olqj0j0oMMoLKJJ2N%jLNkoooj1NJ7RJ1Jlqj1njNLkj0%O
1483a6%ORJ1MjjOQlrrNJ0rj2rkKMkPPKJ1okJpK%lpJQ%JLK%NNmlnnkmnLJ4KnMQLnkj0pLQNpKJlp
1413Ak1nJ1lk1rNOK0RrLP%MJ0J0PppJlKKklJNJjmmljKMLjlmlKJ1PKjmrj1lkk%MRMmj3nJ4J2OJr
1348IoJQPLJ0NnLkj3o%kJJoj0pLK%LNKj1qljOJ1J7J1KL%LomRKrj2pQ%mNKpj1qJNJ0J8kk2kNkLR
1284A7Mlj2mKMJ1jqpj6kMrnKjNJ3NpmLKJ4Rnlnmpn%QP%nj5mLOJ3jj0nKNROjlk%j1qKlNPKorjPn
1217b0nLmJ0J5KklOLj%KONNNKjMMmj6j3k%%qmKKjpNRKMJ4jj1m%J3J4Plljl%qmOj0j0NQkmmlLJ
1153Ej1j0jj5mJ3L%QK3J2j4mJ2jj0rrl%MOkplPJ3Qpj4J%j2lJMMo%LLJ2KrqLLMNlJmoKQMpoJRJl
1090fNmlmjJ1J2J0LPjj2rrnolJPNqnmjjloLJ8PMMjOOLqlNLMnj0j1jJ1PKoopnjpPJ8OrnJ0Rlj0n
1024@QNkorLJ2KmKjj3mkj1rkOJPNJOKjqj0Jj%%KOLrj1mnQJ3Lrj2QJ3PKNPJRjmLjMLRPjmpk%Kl
957B0j0mJQNlLNjqlPNLLLLNJmj5rMpj1LOQNr%NjOjj4JR%l%kpqnpj1r%J6J6kj0oMPlJMKJ0J6J4
893C6J2MnLLpolnrnlnJRJj3j1kpnMRNkPJ7Kj6j1ONjLjNJ3LLmpoj8rLJKJk%kmJJKkrPJ6%%Lproq
825b2kMMkkPORJ3%qomMMqoJQRqrKJQJ0qrjLKJ%jNjoKJkRPp%lpJJJLjLJ2J3J0JoM%j8qJ4Moj1j2
758CmJMnnrnJoLLPLnjKNrmPj0rJ5K4Pjj1j1MKjMkqqlQRPR%kj0j0NO%qokJkmjnNJ7J2NJKMJNN%k
689B8nj0m%Joj1lLMMj5j0J3J1RPjqlJ6J5koJMMnpLJpoj0j0jkm%J0J8Nmj%oj1nlLRQJnJQJ0PPLl
627D0jpj4j6j2%P%ojO%pKPOkk%ookLl%J6J1M%j1mKJ1Qj4qKMQpj3r%KkKjqj1kOOPMLJJPJmqqOPQ
561CJ0ljJ7J2jKnj1%K%Kn%J7J9J0Lpk2l0j5MkjPJ3MrnKkrKJ0LOJ5Lj4nRMjlmnmjOnj0KknLNoj3
499a1%OOLopj1nPJ3RKMjn%MLmPJ0lJ0Kp%j4k3mJ0nljmJ3J0jjOMj5j1lolj0mMmPRjmqpjMJ1J8Ok
437gmj2lJjOQQ%KMnOJ6NQJ2JLRkj2rkkp%LONj4j6qj0j5j1OKnLJ0OMJ1kj0QJ1OOkqmmj2j8j3lO
377c9J0NQJJMrjMKOJllRJ0moKMJLlJ%j3nmKkkP%%J3J7MmjmOLqj5j9rpj4jJ5J0kkkRJ8J2OLnoko
313dpJPLkjmj5rOLPPQMollmoj2m%knkPJ4LMJ2JmnkomKJJ2J1JK%knlLRNklnlJPJ0KpojPLonJPKM
242A9kj1ppKJjKOJ0KPLj0j0j5nLRJ1KnpkmmJjk%nqPK3RnkqnjroKJ2QMmj5opqk%QPlkjj0kJ6Joj
177c4klj0oRMqJkj1lkLMMJ3J0KooJMOKnpj0m%pQQlORJ2MNJ2LJ%jpKJ3MMMLkLjj4kNNnj4mOQNJ0
111B4kpJpj0onn%JkLPQjj5k1oJ0LPRkpmRJ5KKLnjJKkj6j0prq%M%JOJ6J3PJ1Jj2mKj6j8jLLMRjj
48b4J5J1LKJ0J8QJ1K4K3K0J5J9L6L0J5Rjj2j0j4k5j8pJJ2K2L8N6P8R5J34J94K55L31M34N75P11
9C094Q22R25R82R73R48R14Q19O08J65m82j037j337j404j283j040p93n98m27l16k39j80j61j34
-14H19j07q2o2n2m1k9j9j5j3%J4QNPJoj9k3k8l7l3k8l0l1k3j7j0j2j2LJrllk0k4lM%klNj0k4kO
-61D1QPMNpKJ2%j0j0NJj2j2j4j0nklQJ8QKL%kplJJlmJ1Rq%Ppj4ro%NJ3RoqKJ0Lj4j5j3%J5Plq
-121Bj0njJjNJ0Ljj1%J1jKNNJj3j2QJ5LLoqJJMJmlplKKKJ0OkmjMO%Jk%Mj2j7JRONLLKJjplJ6N
-185C4j2j4oNqjJ7%j4%J2J4Kj1%J3nj9pLKMP%jLMQOj1j6j3nOnj0lOJ1RJ0Oj0r%ooQJ1PkkKK%qK
-243A0J4QjoN%ljnmj3j4jJ3Kj3rnjNJ3QKKkLopOMomNomKjMNjonmJNmj0LPMJ0lnKOPmKPrj1Jmj3
-308b5oMJ4PKQlj5j2knkJ5QoMRjPNrlQKnKJ4J0%MkqJjONj4k2j3pj0mqojOPpJJ3RMjMMLMLjQJ4P
-372B3J0J1rqRLj0j5j5rljnMJ7%j8mKj1pPRjnQQJKlLOJn%qj5JMMJ1J0Rlj0mMK%R%kKrNJ5MokOn
-434A7kLKppJqlMN%ojmJPJQQklkj%MLrkJ5Mj3j4j6j1JOKlkQO%jMPl%jj5j3j2JJ5PMLkkLJ1J0q
-497bj6rl%nmj%%%J4J3kpJMrmjLJ1J0J0NNmKJ2kmkNMj0j2qkRNmlmJ3OmJ2mj1j3qNNNkOQKK%Lmm
-561A2JlkkKkjRJ1J7Rnoppjmj0%NMj0j4lomjpjjOQkJ0J1kpKOmkorLNl%OJ4J6Nqj5j4pNLpMJ0QQ
-624A7j0j3L%kMokQNPQPmoMQmrJK%LlorkJ1PQPkJKL%mjMMopmj0qom%JPPM%n%PJ0NpJNlj3k1olk
-692a7%j5jJ3%rpkmj1QJ6onKNJ0OPMOQLkj0okKlnRMkMLkkqj7j0JLKMJ1J0pj0%%%pj1RJ4jlNKkk
-755a8m%OROOLlJ1Nj0qmPnj1lplKKkq%J4R%QJ0n%J0mj5%J1lp%%klJKLjrNPj1j5oOJ1NnORomMLJ
-819@LLnjLppmpkq%J1MLomlj1KJ1PRJ3%pJONj0qjpkNMkjjKJ2J1KJljlpomQJ5Mkoj2nRoj1qoJ1O
-884a3QJ0jkjjLMmj5qLJQJ2LJrqORjj1jNPJ3Nnjkj3j8oQJ0K%Jlrrj2nLk%QRPPRMmjLpnMKOJ1MM
-950B3jnjkLLnnj0rj1pLLMOK%KKNOJlljjlNJ2Oqj1PJ2%pj9qNLKOJ0krJkpJ%jRLq%MKj3oJ8J7Pp
-1015A8mQNNJ2%j1jmKJrklkNkrjJ%jj3kJj3qJ0J2poMMLMkpKjMjqOPQMOPj2j7m%kRQllJ3J7mlPq
-1080B0j4llnOOlj4lJ6J2NNMpj1qj2j4njjLJKJPJ4J3PqjNj0j1kJJj0j7mMQRklJNJ0Pjl%lnMQKm
-1140ank%nkRJ%PMJMKrj8lJ6J0%%NJ5QkQpj3JppJMQJqojlPRkk%lq%ONJj3j1RQoqrOJ6QNlqKJ2
-1205B7J0prLJjklJ2PKjpjKMJqqNJ0oj4j0j1nknljppjJ2J4POnj6j1OJ3Kj0qOJ2NjMKlMmj1%NLL
-1265@NQP%lojOJnmJ0J0lpj4j1n%LLPNKK%l%Jpj2j1roLMkmMMqQJ0loj7j1J3J7J1J0KljolKKJ0
-1326aJ2mj8jJ3%j0OOj3qKO%jloLKJJ4Pj0jO%mj1pomkPJ0OMlONLJ0MjpJNLmj1KMkmmNNkkkJJ1
-1388A8J3oj0%PjpjnkKMJ3lj6jRnqQJ1%mnk4j2OLPMMlpNj0qkJ3K5J2Ppj1qKJ1MooKrj1JKkqmJQ
-1448a0J0NLOPmj3qKQJ1Lj0kLL%%lJQN%nqlkKJ4K0Rj2k0j1pmjmLNppQRJ0Ollrj0kLjonkjoKJk
-1511b4J1J2J2JrrJQK%NPJMQk%KqroqnrpK%RMj6j0QJ1mmJnLJ3J0KnjKmJJ6J1j5j1MklqmLqpk%
-1572c1J1NjNkplJlm%J0J3LJ1Qj0mljOQMLLjomLNQLqpJlj1nqkOrqjLJ4J3kj3lP%lpnNQkkJ1J4
-1634A3J1Jo%l%%llkK%NMpojJnKJ1jj3rPKMJ1NNNNRPpqppJ0J0oj3rmlnlQkroj4j2oJJNJ2J2J0j
-1696b%mrRJ1J3J3%mQKj8j1nJJjJ0NjknJJlkpj1KOLJ2Pjj3j6kj4rJ0Kj0mJ4J0mpo%QOnJJ0%kQ%
-1756dkJ2J0J2J3j1rKoOPmonLOLjnlnqlkj1kRJROj0j0j2pOJ6QmJmj0%J1NLjNQj3j6%KMMLkO%j3
-1816hK%lJ1mlJ2%kjoJ6K2jrj4qNQNJlplOrrJ0%LJ2lKjj5rkN%JOJj1rOLokKkKJ5NORk%KLlpqmj
-1881Fj7j4JJ1RjpJJ0KJlj1rKJ3P%rmM%jnj1qL%JJlLnMJ1ORMnkMPKo%%j0nJjJ3J2lRJ1pj3jQJ0
-1943B5Mj1jOLKkjqORlLj0j8rj0%J1kj3LJ1lqKOJkqmM%mM%njnj%LQJ%JKQJ0PJmMRln%KJlLJkPL
-2009B5MLJjnjJ%mLKp%oqj3mQj1lJ1kj3%J1mj0jmnMRPOKmqmPJ9KplpL%ploKLOOqMRRRj3rk%Jj7
-2074b3qMoj0j0nPJ3MNLmJkolRJ6RQ%POpmm%jj0j2jJqoJQNq%RkPJ9Mo%NklJj2jQ%Nj0qJ1JJQJ2
-2138A6RRKj2j4qMJ1RNPJqORnqmL%qkNJ0PKPJj1j7j2kLJ2Jj2oolnpjKJ0J1LJ1J1nmj0rkj2lRJ0
-2196A0Lj0j%j2%QjL%oo%J5PoqjJ1RMlrmP%qrjJ4PkNLlkopJkj0j5mRNjPRrqNMnoKkmjkq%RmnJL
-2263c0KKRoJJ1MJ4Nolj0jJ1LjomL%lqj1NPpk%kMJjLjqpNJ1%kMMJ2J1ro%nNOKKnm%l%rj1PONPK
-2329CMNLjQKj5j3oOQJJPONNLroJ1LlMjMNjqj4qmK%qj7oJ2LPKrjljj0j0QLjJ2Pjjjmrn%MRMJln
-2395a6JKmj0j4j1RJ9QmJNMNjkJLRMJkr%QJqqLL%LPRloLlo%MMMJ4%j8kjpMJj1j2J6J8OJpLlj3o
-2458clnjK%%qKJ3MRMj0j0rpLJ5QjLJ0J1kj6j0MJmooLJ%KPKq%KLn%J5LOQJNKlqKJoKJJ%nnlKmp
-2525ClMJnn%J1J1%%jj0pKmOJ3JpnKLpqnj5oJ5J4JlojJ1LjkpnonoOOPKmJo%P%nrKKQLj3j2rNJ0
-2589b8J1J8Pj0rlj%nnjNJ3J6MpkRJ0KOPjj0j4ojMJnJNJ2MqprjJ5Qnopj%j3nQM%rlQNKMoj6lJj
-2651a8RMKlrjNPMNOnk1qLLQlRLpJ4Qkj1j0kMMLPl%KJPJ0Lj5LJ1%j1k8j3RJ0RKrNQkj2j4KKkp
-2712b4j0NJ1R%mkMMkpLJ6OL%j0mJ1J0oonKJ5MkJ2Kj1POnNKrokLOOJ0Nqj1KOKMn%Mj4j6rj1nJ1
-2771BMpmJJ1Lm%knn%J4QnMMqj2nLKL%JL%klRkokmnj1kMJNLOJ0JpnJ5J6lj7pkj1lmj0J4J7MqmN
-2834bQJ4NnmkJlpo%KoqOOm%LmpoL%nkkJRJ3kj0jLJ0Loj1j2opkMNOj0nJ7J4JKQMMj5j6poPJ1J7
-2896bOmkpqlMlKQnqrKj%LrmJNO%%n%KOJ1MRN%KKNnlJLjpj0oJ%KJ0J0momrJ1KrLK%MJ0KjJ1J3L
-2964C6mnj0rlPMpMJ1KqkNkkrmlj4qLNNNkKJ2Oj0lLNQrmLKJ%Kj1JNoJJknmlqjK3K1j0k1j5%Lqk
-3027b8Km%OOMoqLOROJMJ3kj7QJ1plOJj3oL%Kmn%l%PPMJ0J2MOJqpqmLM%mkM%oj1j0njMJjKnjOQ
-3094eJj5pJ3Rl%jpKJmJ%j1nOnmNNJ4Rj0j1jJlnJNJ0PJj0j0Pkj1p%MmlqmJ0JqlPNmOJ1J1J1J0O
-3154Ikk%mppKJ3MkQKjNPjj0j1jJ0MJJj6j2LNJ1QMonnkOlljkPKk%lpkKNRQK1J1jkj8o%rmnkqrK
-3219a1NJ2ORQj1j0mMQQQ%%LojOkqjj%Mkqkkj2nQok1nPOOJ0J1MpmjpproJ3N%NjQK1J5Mjj2j1n
-3280A5j1j0%J2LMOJPklljoj3%lQJ4rj1JJPPj0jJ1LNRMLkj5j2p%Pk%kjPJj6mJj6rKNQKpMJ0lLN
-3342cPN%lj1MQkj2qLnNJn%RJ0j0mJ0QLnj2j9nMJ0J1lmJKJ1K0Roj0mjppj0qlkRKrONmpj0prrM
-3402e7J4J5O%NJ3PpkKmNJ2%j2oOJ1QMJpj5mJ2LqokJjkQMJMj2j5%JKKKNjOK4J8npkrqJjJOMPJ5
-3463D3Nmqj3j4%K0J6kj0qjnmQJ5J3Onj1j8j8no%ProJ0J3PkpjLPJk1k3JRNkj6rJ3Mj1pRJ3Rlj2
-3518b4%JNNLOLjroj3j5npMMkLMJ3Nqlj1lMKOKMQMlLQNRlj0KklJ3Rj0nOLop%j0pmNK2Pmlnnk%q
-3584b6okLlkRNlmmj0j0NRMJ5J7JkonOLJkrmJkJLlNQJLnm%knjNMOqj4MLrnJpJJ1LnkQJ2RQqJJ8
-3650A6kj3mj1r%PnrJ3J1Mlj6j0pj2oRJ9J4LOQjKOPLj2pJkPOjjqnmoN%j3mRJ1Llkm%P%j0MJ2JM
-3710HKmQJ2NklRJrkjkpj2qOPlj2j9jJ2LJjlLJkLOlNJ3%r%OppPMMR%J0J5mopnrpPMjokjkKKMmo
-3778BKQOjLrqKmnKNoqkMP%jn%QkKPMNKLQLNLrj0j1mMNLM%pMLolp%MJNLj2j6m%MjJMmrj1OJ2nl
-3847a9MJJ0J1lqK%MJ1R%pOQmllMOpj1RMrPR%JLrqRJ%lrjmkj1jJ4pKJ2NP%pKJ3NmjrpKj6j4NJj
-3912aJmkmkLkpKJ4PKK%PJNJ5Kj2j0lOJ3RLj2j2JPNprnnmmpj2m%J5J4rJJ0Ooj3j3j2RJ6J2Rlj1
-3970Br%M%nMQlLJ3J0klrj0mnL%j0LjkjrjOJ3K3Mrj%okPKmqojJNkkRLNKKJ2kj1kMooLmjjMJj2L
-4036aM%Loj3j3j1JJ0QNk%Ql%LlPPl%jKRNJnLJ7kqmpnj0JMrnOJ7J4JLmj3LKlnpj1j2l%NM%R%mq
-4101a9mJ3J4Plqj1j2Jknl%J0R%LMmppKNoj3pONOJ4j%Ok%kqkkOJ0k%LLN%mkQO%jmnkL%lOJ6J4n
-4165B9j6poj0JPRKnpmOPLLNjjQj2j8lNLKL%QLqmrmMOKjnj3olj3rPQLMLKMlpJPJ5J0jq%Kj3lNK
-4230a1%rqMJ4LjPKKPK0Jj8MOLNJMLmjMKmj2j6JPj2rJl%%jlplOMnJQLmjM%LNJ1J1lj0j0nOQKon
-4295Bj%QJ1LprJKmj0loj3klOQjmjkj6pnjJ1QK0Rj0k%pKOjJ6J2RPmJj1j1MPJokMOqkRllLMMook
-4359Em%%mjMKoJMljN%j1lk%J0MQ%j1lQJ1nnRMn%LKQKmoj0KJ3ONmkJ8PO%j0jmMpj2%LKj6j6j3
-4421a3j0JLJLRJpkLknKOMpmqmJ0jLkj2LJ1PMjLJ0mpLNQMKnkjknqkj0pJ0JqLJRJ7%JNmQJ5mj6j
-4486A2O%jjjjLkpkJlmKRLj4j5OPj0jMj1qlpJJ1Kj3j0lQPPQJkLQkjMJJ2Kj1nJlQJ3rj2j%PNL%
-4548Bj2j4qjOnj0jKNNQQnjOJl%ORLoqpJJ2LpmJNPQ%rj0j0OK0J4Jrj3nkpkRJ0J0MMJ2qj5MKKMJ
-4610A9krNJ0ooJL%%PNmj5j1lJNJNJj3KJ1J0J1Jmo%QJ3PnnoolKLoj0JJ0%mNkmkoomnjjLM%KQLp
-4675Ej3j6jJ7J2nJRkpqmJjMjlJ1J2JJOkqmLOjj1kRllOlmprLlj8nJ0NRJ1jjJ0PKLlMJ3Nnj5j3r
-4736eJPj0%J0mpNLlJ0PrkJ0Mopj1jjmlq%ljMOJ0%pkjnLJ1MlMLnKQMoj5lRP%lkJ%ljnpnLJ6J7
-4800A1J6QNJ0kj4pKPM%lqjmj1j4JJ6MRPrr%LlmJMLmj3qkj6qOJooRJ8Kmmj5lJ6J7J3lqmjJmpj3
-4860b4jj%JpKMPJ1J%OKkMLNLj2j5OJ0%OLolKoro%Mqj2LJ8J6o%J2LlLJnKlr%Pjj4oLllN%kNNLP
-4926FLllnKRLPJ1KJPMnpKJ2jj2j2nJoj2kkpLLPRKJ%%j6j6JOMjklnqkQMNKLNQkjJ4%j9k4mJ9J2
-4989AJj2pJnmLMnmJ7K6QljkkrnQNqnlj5lJ8J5Mmj4lNqjPnpjJ0RlmM%nnlNKKRJ0%j3nJ3Mplj5
-5051hj7MLkNKKknoj7j1PKnnpNORJ7P%mjQJ3Kq%j0MJ6knm%llKmj1oRRJ6J2JLKkpkRQLj0j1LLmJ
-5115A1JkmqnLJ1KMMKJ2J0pj3oroJNOOJ0Kkj4j2MjmJNjKjj5pQJ4N%OOknkooPJ1kqOQKmj4j5kNJ
-5177blnlkKjmJNJ0jj5rKPJpLJ7K1Mj5lLoLORKopmRJ0NlrponojnnQJ1Q%qj1loj3Moj7roJ5J4jJ
-5240c9qKJ7RKPRJKkoqkONOKoj6qQMmkkoQJ2J0J1mnj0j3MJ4Lj1oOJnKJ0J0Jj2j4JK5K1nj6onj0
-5298a2PO%LjmoJ1PlJ0J5RklkJqrlnk%LKlmoKN%MJ0J1Jrj0klQJ0ll%lproj2mPOMJ0J6Pj5j5k%q
-5360ij5j2kKJ4RmJqkJ2jnmKJ6L%KlljOOkpj2rKJ4J4JjNqj1pnNJ1J6J1KopkjJ3Kq%Ljj1qj1LJ2
-5419Aj%nknmLknqMmj6rrPPo%M%mjJPJ6J4mqJ3J0NJKRqj8NJ2L%KNqoOOJrkKol%%ORLnpOPj8j1k
-5485a9j1lJ0Jj2mJ4RmMJ1RJnLPNlro%%j4j1RLmPMLJm%rnLLO%njjmJ1J5lmppkPOj4k0pQRJMOlp
-5549b8KNNOJ%J0R%rj1LQpJRLLPQOkj1nOPnqooKOM%jpjJ5J2Rkj2m%%oqj0oKNMjNNpj6j0J2MmMq
-5613a3pjkONMOnoNM%RNnNLm%J0J5jqppnKNprjKJjloLMnnJnqKMkLJ2J0NkojomjLOlJlKKkPOjmO
-5684HKkLMNqj3pNO%OooMMjnJlmKpjNLJ0NLQMLlkKj5j3LkLJ1jj2j5oL%kmqplNPjnjNQRJ0RLNln
-5751Ckj0KP%J0KoknoLLpnJJ0RKJ1RMOrj6pnlj1rKJ0J1Jp%QMkklKN%o%OJloqkPRoj2JQLmj2mJ2
-5815hJ1LkpnQJqOOomljQRPMj2j2NRJ1J2M%oj3kkLLk%jjmj0j5LRpPKrnjKNQppOLlmJNJkk%ljR%
-5883drkmoJKlkRJ1Ql%ORJ0pnPR%o%mJOkmKMljjrkKpJJqlLLLMJlnKJ4J4Mpj6oQNPMplpj1jKJ0Q
-5951B0mlmnljjKjnJjmPJ1MJnrqkMnjJ4J1nr%LNjnLNJpKNpOQk%pmPJjjnlnOOpn%LoMJ0jJ0PmnJ
-6021A6QMnnmj1j1lJJ2J5Kj1rlj0o%l%OJ2PqqnnKJ2J7N%JopKKnoMJnnJLqj2LNJ1Pj0KRLJLKmr
-6082ej1%MJJMNmJ%njkMnpRNmKJ7Qj1prplj0%j%NnJRRNJJLlojkKOJ0RLkKQoj1lnmlqrJ0J3NJjm
-6149alJ3RlrrolJ1NlMJ1Ql%ppjk%mkljRPLPNmm%RKmj%Njj5j4MMplmKLKLNOookJNmnKNoj8nJ0
-6217a6J1P%jKJpqRQj%lLJkPJpkNJpjoo%LNMMlmJJJpnKLLQNlJLlj2nRPlokK%jLLjlLQJoj1qOl
-6287a1j0nLLOJ7Onqpmjmoo%Pj%KoNJ1LnJNLkpJK%KMJ4Qmmj0rnooNPmlKOLmQLm%lomLNjLknlnK
-6357b6OJJJ0J4J4KnoKPJlj0ojlPP%qj2n%MKJjpkjjMQRQK%Mmj2oORmojJ5J0rkmlkmjMJ0Nkj2j5
-6420a1nLJ1LjlKPkJlr%PjnQJ1Lkjpj3%QjoNJ0OloKLJLM%m%KkJLpokll%QJj1k%rJLrqKJ2J7MK%
-6487IlLNmmJ%ppJOOLmrpJlj1%J%RJ1L%NMklMQMlmmj1r%OLjNOkKRNkrj5oMPMMQJoklmlppkORLJ
-6559Clj0nNMjlqmKmmNNlKOML%kkPPLKpmLLllK%oqj2oLmrLJ0K1J0pKMNP%prlOJ1Jnkj1mMQNpol
-6627iLKjOJlM%kMJ0Mjjkjm%Mjpj1lKJjoKjj3lRPlmOJ5jj0jKONlokJkklolPOMKloj0KJ0lp%J%J
-6696a8MLlrmQRkMJ2Kl%mpkOR%jKLOLMML%j1qjPMLNmkJlqojJPPOJJJK%oj%%oj0%MMlpLQMmnknj
-6767D%npPJ5koPMroNkp%RM%kqJ%nLNM%kknoOQMOJrj4n%%%noLJ2J2Lnq%MOJjRJj3j0K%lkkNNLN
-6837GJpjJ3PmmjLJnj0%Jo%%jJoo
-6858a7 $$ checkpoint
##END=
##TITLE=Peak list
##JCAMP-DX=5.01
##ORIGIN=UNKNOWN
##OWNER=UNKNOWN
##DATA TYPE=NMR PEAK TABLE
##DATA CLASS=PEAK TABLE
##BLOCK_ID=3
##CROSS REFERENCE=NMR SPECTRUM:BLOCK_ID=2
##DATE=22/03/03
##TIME=15:10:30
##TEMPERATURE=25
##LONG DATE=2022/03/03 15:10:30 
##.OBSERVE FREQUENCY=600
##.OBSERVE NUCLEUS=1H
##.SOLVENT NAME=H2O
##NPOINTS=55
##XUNITS=PPM
##YUNITS=ARBITRARY UNITS
##PEAK TABLE=(XY..XY)
(0.874, 3144997577.6666665)
(0.886, 6653263333.333332)
(0.899, 3343098493.4166665)
(0.874, 3144997577.6666665)
(0.886, 6653263333.333332)
(0.899, 3343098493.4166665)
(0.874, 3144997577.6666665)
(0.886, 6653263333.333332)
(0.899, 3343098493.4166665)
(1.605, 142463001.12499997)
(1.617, 527187953.3749999)
(1.629, 927631240.25)
(1.641, 1357265720.0)
(1.653, 1312356192.4999998)
(1.664, 813860437.2499999)
(1.677, 241762956.37499997)
(1.605, 142463001.12499997)
(1.617, 527187953.3749999)
(1.629, 927631240.25)
(1.641, 1357265720.0)
(1.653, 1312356192.4999998)
(1.664, 813860437.2499999)
(1.677, 241762956.37499997)
(1.694, 265215709.625)
(1.702, 293907907.74999994)
(1.707, 748991119.75)
(1.714, 802134060.625)
(1.719, 822842342.7499998)
(1.727, 902432005.3749999)
(1.73, 636218306.2499999)
(1.738, 599791689.5)
(1.743, 502986707.99999994)
(1.75, 447847788.12499994)
(1.755, 252990338.25)
(1.763, 160676309.49999997)
(1.767, 61126856.87499999)
(1.772, 34929632.5)
(1.694, 265215709.625)
(1.702, 293907907.74999994)
(1.707, 748991119.75)
(1.714, 802134060.625)
(1.719, 822842342.7499998)
(1.727, 902432005.3749999)
(1.73, 636218306.2499999)
(1.738, 599791689.5)
(1.743, 502986707.99999994)
(1.75, 447847788.12499994)
(1.755, 252990338.25)
(1.763, 160676309.49999997)
(1.767, 61126856.87499999)
(1.772, 34929632.5)
(3.981, 3111232266.25)
(3.989, 3399152236.9999995)
(3.992, 3073308665.2499995)
(4.0, 2582297831.2499995)
##END=
##TITLE=Assignments
##JCAMP-DX=5.01
##ORIGIN=UNKNOWN
##OWNER=UNKNOWN
##DATA TYPE=NMR PEAK ASSIGNMENTS
##DATA CLASS=PEAK ASSIGNMENTS
##BLOCK_ID=4
##CROSS REFERENCE=STRUCTURE:BLOCK_ID=1
##DATE=22/03/03
##TIME=15:10:30
##SAMPLE DESCRIPTION=2-Hydroxybutanoic acid
##TEMPERATURE=25
##LONG DATE=2022/03/03 15:10:30 
##SOURCE REFERENCE=HMDB0000008
##.OBSERVE FREQUENCY=600
##.OBSERVE NUCLEUS=1H
##.SOLVENT NAME=H2O
##NPOINTS=55
##XUNITS=PPM
##PEAK ASSIGNMENTS=(XMA)
(0.886, <t>, <8>)
(0.886, <t>, <8>)
(0.886, <t>, <8>)
(0.886, <t>, <9>)
(0.886, <t>, <9>)
(0.886, <t>, <9>)
(0.886, <t>, <10>)
(0.886, <t>, <10>)
(0.886, <t>, <10>)
(1.641, <m>, <11>)
(1.641, <m>, <11>)
(1.641, <m>, <11>)
(1.641, <m>, <11>)
(1.641, <m>, <11>)
(1.641, <m>, <11>)
(1.641, <m>, <11>)
(1.641, <m>, <12>)
(1.641, <m>, <12>)
(1.641, <m>, <12>)
(1.641, <m>, <12>)
(1.641, <m>, <12>)
(1.641, <m>, <12>)
(1.641, <m>, <12>)
(1.734, <m>, <11>)
(1.734, <m>, <11>)
(1.734, <m>, <11>)
(1.734, <m>, <11>)
(1.734, <m>, <11>)
(1.734, <m>, <11>)
(1.734, <m>, <11>)
(1.734, <m>, <11>)
(1.734, <m>, <11>)
(1.734, <m>, <11>)
(1.734, <m>, <11>)
(1.734, <m>, <11>)
(1.734, <m>, <11>)
(1.734, <m>, <11>)
(1.734, <m>, <12>)
(1.734, <m>, <12>)
(1.734, <m>, <12>)
(1.734, <m>, <12>)
(1.734, <m>, <12>)
(1.734, <m>, <12>)
(1.734, <m>, <12>)
(1.734, <m>, <12>)
(1.734, <m>, <12>)
(1.734, <m>, <12>)
(1.734, <m>, <12>)
(1.734, <m>, <12>)
(1.734, <m>, <12>)
(1.734, <m>, <12>)
(3.99, <dd>, <13>)
(3.99, <dd>, <13>)
(3.99, <dd>, <13>)
(3.99, <dd>, <13>)
##END=
##END=
